\ Model FirefightingVRPTW_P5_fixed
\ LP format - for model browsing. Use MPS format to capture full model detail.
\ Signature: 0x7c9c1eb9fecaded0
Minimize
  y[0,0,0] + y[0,0,1] + y[0,0,2] + y[0,0,3] + y[0,0,4] + y[0,0,5] + y[0,0,6]
   + y[0,0,7] + y[0,0,8] + y[0,0,9] + y[0,1,0] + y[0,1,1] + y[0,1,2]
   + y[0,1,3] + y[0,1,4] + y[0,1,5] + y[0,1,6] + y[0,1,7] + y[0,1,8]
   + y[0,1,9] + y[0,2,0] + y[0,2,1] + y[0,2,2] + y[0,2,3] + y[0,2,4]
   + y[0,2,5] + y[0,2,6] + y[0,2,7] + y[0,2,8] + y[0,2,9] + y[0,3,0]
   + y[0,3,1] + y[0,3,2] + y[0,3,3] + y[0,3,4] + y[0,3,5] + y[0,3,6]
   + y[0,3,7] + y[0,3,8] + y[0,3,9] + y[0,4,0] + y[0,4,1] + y[0,4,2]
   + y[0,4,3] + y[0,4,4] + y[0,4,5] + y[0,4,6] + y[0,4,7] + y[0,4,8]
   + y[0,4,9] + y[1,0,0] + y[1,0,1] + y[1,0,2] + y[1,0,3] + y[1,0,4]
   + y[1,0,5] + y[1,0,6] + y[1,0,7] + y[1,0,8] + y[1,0,9] + y[1,1,0]
   + y[1,1,1] + y[1,1,2] + y[1,1,3] + y[1,1,4] + y[1,1,5] + y[1,1,6]
   + y[1,1,7] + y[1,1,8] + y[1,1,9] + y[1,2,0] + y[1,2,1] + y[1,2,2]
   + y[1,2,3] + y[1,2,4] + y[1,2,5] + y[1,2,6] + y[1,2,7] + y[1,2,8]
   + y[1,2,9] + y[1,3,0] + y[1,3,1] + y[1,3,2] + y[1,3,3] + y[1,3,4]
   + y[1,3,5] + y[1,3,6] + y[1,3,7] + y[1,3,8] + y[1,3,9] + y[1,4,0]
   + y[1,4,1] + y[1,4,2] + y[1,4,3] + y[1,4,4] + y[1,4,5] + y[1,4,6]
   + y[1,4,7] + y[1,4,8] + y[1,4,9] + y[2,0,0] + y[2,0,1] + y[2,0,2]
   + y[2,0,3] + y[2,0,4] + y[2,0,5] + y[2,0,6] + y[2,0,7] + y[2,0,8]
   + y[2,0,9] + y[2,1,0] + y[2,1,1] + y[2,1,2] + y[2,1,3] + y[2,1,4]
   + y[2,1,5] + y[2,1,6] + y[2,1,7] + y[2,1,8] + y[2,1,9] + y[2,2,0]
   + y[2,2,1] + y[2,2,2] + y[2,2,3] + y[2,2,4] + y[2,2,5] + y[2,2,6]
   + y[2,2,7] + y[2,2,8] + y[2,2,9] + y[2,3,0] + y[2,3,1] + y[2,3,2]
   + y[2,3,3] + y[2,3,4] + y[2,3,5] + y[2,3,6] + y[2,3,7] + y[2,3,8]
   + y[2,3,9] + y[2,4,0] + y[2,4,1] + y[2,4,2] + y[2,4,3] + y[2,4,4]
   + y[2,4,5] + y[2,4,6] + y[2,4,7] + y[2,4,8] + y[2,4,9] + y[3,0,0]
   + y[3,0,1] + y[3,0,2] + y[3,0,3] + y[3,0,4] + y[3,0,5] + y[3,0,6]
   + y[3,0,7] + y[3,0,8] + y[3,0,9] + y[3,1,0] + y[3,1,1] + y[3,1,2]
   + y[3,1,3] + y[3,1,4] + y[3,1,5] + y[3,1,6] + y[3,1,7] + y[3,1,8]
   + y[3,1,9] + y[3,2,0] + y[3,2,1] + y[3,2,2] + y[3,2,3] + y[3,2,4]
   + y[3,2,5] + y[3,2,6] + y[3,2,7] + y[3,2,8] + y[3,2,9] + y[3,3,0]
   + y[3,3,1] + y[3,3,2] + y[3,3,3] + y[3,3,4] + y[3,3,5] + y[3,3,6]
   + y[3,3,7] + y[3,3,8] + y[3,3,9] + y[3,4,0] + y[3,4,1] + y[3,4,2]
   + y[3,4,3] + y[3,4,4] + y[3,4,5] + y[3,4,6] + y[3,4,7] + y[3,4,8]
   + y[3,4,9] + y[4,0,0] + y[4,0,1] + y[4,0,2] + y[4,0,3] + y[4,0,4]
   + y[4,0,5] + y[4,0,6] + y[4,0,7] + y[4,0,8] + y[4,0,9] + y[4,1,0]
   + y[4,1,1] + y[4,1,2] + y[4,1,3] + y[4,1,4] + y[4,1,5] + y[4,1,6]
   + y[4,1,7] + y[4,1,8] + y[4,1,9] + y[4,2,0] + y[4,2,1] + y[4,2,2]
   + y[4,2,3] + y[4,2,4] + y[4,2,5] + y[4,2,6] + y[4,2,7] + y[4,2,8]
   + y[4,2,9] + y[4,3,0] + y[4,3,1] + y[4,3,2] + y[4,3,3] + y[4,3,4]
   + y[4,3,5] + y[4,3,6] + y[4,3,7] + y[4,3,8] + y[4,3,9] + y[4,4,0]
   + y[4,4,1] + y[4,4,2] + y[4,4,3] + y[4,4,4] + y[4,4,5] + y[4,4,6]
   + y[4,4,7] + y[4,4,8] + y[4,4,9]
Subject To
 y_init_0_0: y[0,0,0] = 0
 e_init_0_0: e[0,0,0] = 0
 y_init_0_1: y[0,1,0] = 0
 e_init_0_1: e[0,1,0] = 0
 y_init_0_2: y[0,2,0] = 0
 e_init_0_2: e[0,2,0] = 0
 y_init_0_3: y[0,3,0] = 0
 e_init_0_3: e[0,3,0] = 0
 y_init_0_4: y[0,4,0] = 0
 e_init_0_4: e[0,4,0] = 0
 y_init_1_0: y[1,0,0] = 0
 e_init_1_0: e[1,0,0] = 0
 y_init_1_1: y[1,1,0] = 0
 e_init_1_1: e[1,1,0] = 0
 y_init_1_2: y[1,2,0] = 0
 e_init_1_2: e[1,2,0] = 0
 y_init_1_3: y[1,3,0] = 0
 e_init_1_3: e[1,3,0] = 0
 y_init_1_4: y[1,4,0] = 0
 e_init_1_4: e[1,4,0] = 0
 y_init_2_0: y[2,0,0] = 0
 e_init_2_0: e[2,0,0] = 0
 y_init_2_1: y[2,1,0] = 0
 e_init_2_1: e[2,1,0] = 0
 y_init_2_2: y[2,2,0] = 1
 e_init_2_2: e[2,2,0] = 0
 y_init_2_3: y[2,3,0] = 0
 e_init_2_3: e[2,3,0] = 0
 y_init_2_4: y[2,4,0] = 0
 e_init_2_4: e[2,4,0] = 0
 y_init_3_0: y[3,0,0] = 0
 e_init_3_0: e[3,0,0] = 0
 y_init_3_1: y[3,1,0] = 0
 e_init_3_1: e[3,1,0] = 0
 y_init_3_2: y[3,2,0] = 0
 e_init_3_2: e[3,2,0] = 0
 y_init_3_3: y[3,3,0] = 0
 e_init_3_3: e[3,3,0] = 0
 y_init_3_4: y[3,4,0] = 0
 e_init_3_4: e[3,4,0] = 0
 y_init_4_0: y[4,0,0] = 0
 e_init_4_0: e[4,0,0] = 0
 y_init_4_1: y[4,1,0] = 0
 e_init_4_1: e[4,1,0] = 0
 y_init_4_2: y[4,2,0] = 0
 e_init_4_2: e[4,2,0] = 0
 y_init_4_3: y[4,3,0] = 0
 e_init_4_3: e[4,3,0] = 0
 y_init_4_4: y[4,4,0] = 0
 e_init_4_4: e[4,4,0] = 0
 q_init_0: q[0,0] = 15000
 q_init_1: q[1,0] = 3000
 q_init_2: q[2,0] = 3000
 one_per_cell[0,0,0]: x[0,0,0,0] + x[1,0,0,0] + x[2,0,0,0] <= 1
 one_per_cell[0,0,1]: x[0,0,0,1] + x[1,0,0,1] + x[2,0,0,1] <= 1
 one_per_cell[0,0,2]: x[0,0,0,2] + x[1,0,0,2] + x[2,0,0,2] <= 1
 one_per_cell[0,0,3]: x[0,0,0,3] + x[1,0,0,3] + x[2,0,0,3] <= 1
 one_per_cell[0,0,4]: x[0,0,0,4] + x[1,0,0,4] + x[2,0,0,4] <= 1
 one_per_cell[0,0,5]: x[0,0,0,5] + x[1,0,0,5] + x[2,0,0,5] <= 1
 one_per_cell[0,0,6]: x[0,0,0,6] + x[1,0,0,6] + x[2,0,0,6] <= 1
 one_per_cell[0,0,7]: x[0,0,0,7] + x[1,0,0,7] + x[2,0,0,7] <= 1
 one_per_cell[0,0,8]: x[0,0,0,8] + x[1,0,0,8] + x[2,0,0,8] <= 1
 one_per_cell[0,0,9]: x[0,0,0,9] + x[1,0,0,9] + x[2,0,0,9] <= 1
 one_per_cell[0,1,0]: x[0,0,1,0] + x[1,0,1,0] + x[2,0,1,0] <= 1
 one_per_cell[0,1,1]: x[0,0,1,1] + x[1,0,1,1] + x[2,0,1,1] <= 1
 one_per_cell[0,1,2]: x[0,0,1,2] + x[1,0,1,2] + x[2,0,1,2] <= 1
 one_per_cell[0,1,3]: x[0,0,1,3] + x[1,0,1,3] + x[2,0,1,3] <= 1
 one_per_cell[0,1,4]: x[0,0,1,4] + x[1,0,1,4] + x[2,0,1,4] <= 1
 one_per_cell[0,1,5]: x[0,0,1,5] + x[1,0,1,5] + x[2,0,1,5] <= 1
 one_per_cell[0,1,6]: x[0,0,1,6] + x[1,0,1,6] + x[2,0,1,6] <= 1
 one_per_cell[0,1,7]: x[0,0,1,7] + x[1,0,1,7] + x[2,0,1,7] <= 1
 one_per_cell[0,1,8]: x[0,0,1,8] + x[1,0,1,8] + x[2,0,1,8] <= 1
 one_per_cell[0,1,9]: x[0,0,1,9] + x[1,0,1,9] + x[2,0,1,9] <= 1
 one_per_cell[0,2,0]: x[0,0,2,0] + x[1,0,2,0] + x[2,0,2,0] <= 1
 one_per_cell[0,2,1]: x[0,0,2,1] + x[1,0,2,1] + x[2,0,2,1] <= 1
 one_per_cell[0,2,2]: x[0,0,2,2] + x[1,0,2,2] + x[2,0,2,2] <= 1
 one_per_cell[0,2,3]: x[0,0,2,3] + x[1,0,2,3] + x[2,0,2,3] <= 1
 one_per_cell[0,2,4]: x[0,0,2,4] + x[1,0,2,4] + x[2,0,2,4] <= 1
 one_per_cell[0,2,5]: x[0,0,2,5] + x[1,0,2,5] + x[2,0,2,5] <= 1
 one_per_cell[0,2,6]: x[0,0,2,6] + x[1,0,2,6] + x[2,0,2,6] <= 1
 one_per_cell[0,2,7]: x[0,0,2,7] + x[1,0,2,7] + x[2,0,2,7] <= 1
 one_per_cell[0,2,8]: x[0,0,2,8] + x[1,0,2,8] + x[2,0,2,8] <= 1
 one_per_cell[0,2,9]: x[0,0,2,9] + x[1,0,2,9] + x[2,0,2,9] <= 1
 one_per_cell[0,3,0]: x[0,0,3,0] + x[1,0,3,0] + x[2,0,3,0] <= 1
 one_per_cell[0,3,1]: x[0,0,3,1] + x[1,0,3,1] + x[2,0,3,1] <= 1
 one_per_cell[0,3,2]: x[0,0,3,2] + x[1,0,3,2] + x[2,0,3,2] <= 1
 one_per_cell[0,3,3]: x[0,0,3,3] + x[1,0,3,3] + x[2,0,3,3] <= 1
 one_per_cell[0,3,4]: x[0,0,3,4] + x[1,0,3,4] + x[2,0,3,4] <= 1
 one_per_cell[0,3,5]: x[0,0,3,5] + x[1,0,3,5] + x[2,0,3,5] <= 1
 one_per_cell[0,3,6]: x[0,0,3,6] + x[1,0,3,6] + x[2,0,3,6] <= 1
 one_per_cell[0,3,7]: x[0,0,3,7] + x[1,0,3,7] + x[2,0,3,7] <= 1
 one_per_cell[0,3,8]: x[0,0,3,8] + x[1,0,3,8] + x[2,0,3,8] <= 1
 one_per_cell[0,3,9]: x[0,0,3,9] + x[1,0,3,9] + x[2,0,3,9] <= 1
 one_per_cell[0,4,0]: x[0,0,4,0] + x[1,0,4,0] + x[2,0,4,0] <= 1
 one_per_cell[0,4,1]: x[0,0,4,1] + x[1,0,4,1] + x[2,0,4,1] <= 1
 one_per_cell[0,4,2]: x[0,0,4,2] + x[1,0,4,2] + x[2,0,4,2] <= 1
 one_per_cell[0,4,3]: x[0,0,4,3] + x[1,0,4,3] + x[2,0,4,3] <= 1
 one_per_cell[0,4,4]: x[0,0,4,4] + x[1,0,4,4] + x[2,0,4,4] <= 1
 one_per_cell[0,4,5]: x[0,0,4,5] + x[1,0,4,5] + x[2,0,4,5] <= 1
 one_per_cell[0,4,6]: x[0,0,4,6] + x[1,0,4,6] + x[2,0,4,6] <= 1
 one_per_cell[0,4,7]: x[0,0,4,7] + x[1,0,4,7] + x[2,0,4,7] <= 1
 one_per_cell[0,4,8]: x[0,0,4,8] + x[1,0,4,8] + x[2,0,4,8] <= 1
 one_per_cell[0,4,9]: x[0,0,4,9] + x[1,0,4,9] + x[2,0,4,9] <= 1
 one_per_cell[1,0,0]: x[0,1,0,0] + x[1,1,0,0] + x[2,1,0,0] <= 1
 one_per_cell[1,0,1]: x[0,1,0,1] + x[1,1,0,1] + x[2,1,0,1] <= 1
 one_per_cell[1,0,2]: x[0,1,0,2] + x[1,1,0,2] + x[2,1,0,2] <= 1
 one_per_cell[1,0,3]: x[0,1,0,3] + x[1,1,0,3] + x[2,1,0,3] <= 1
 one_per_cell[1,0,4]: x[0,1,0,4] + x[1,1,0,4] + x[2,1,0,4] <= 1
 one_per_cell[1,0,5]: x[0,1,0,5] + x[1,1,0,5] + x[2,1,0,5] <= 1
 one_per_cell[1,0,6]: x[0,1,0,6] + x[1,1,0,6] + x[2,1,0,6] <= 1
 one_per_cell[1,0,7]: x[0,1,0,7] + x[1,1,0,7] + x[2,1,0,7] <= 1
 one_per_cell[1,0,8]: x[0,1,0,8] + x[1,1,0,8] + x[2,1,0,8] <= 1
 one_per_cell[1,0,9]: x[0,1,0,9] + x[1,1,0,9] + x[2,1,0,9] <= 1
 one_per_cell[1,1,0]: x[0,1,1,0] + x[1,1,1,0] + x[2,1,1,0] <= 1
 one_per_cell[1,1,1]: x[0,1,1,1] + x[1,1,1,1] + x[2,1,1,1] <= 1
 one_per_cell[1,1,2]: x[0,1,1,2] + x[1,1,1,2] + x[2,1,1,2] <= 1
 one_per_cell[1,1,3]: x[0,1,1,3] + x[1,1,1,3] + x[2,1,1,3] <= 1
 one_per_cell[1,1,4]: x[0,1,1,4] + x[1,1,1,4] + x[2,1,1,4] <= 1
 one_per_cell[1,1,5]: x[0,1,1,5] + x[1,1,1,5] + x[2,1,1,5] <= 1
 one_per_cell[1,1,6]: x[0,1,1,6] + x[1,1,1,6] + x[2,1,1,6] <= 1
 one_per_cell[1,1,7]: x[0,1,1,7] + x[1,1,1,7] + x[2,1,1,7] <= 1
 one_per_cell[1,1,8]: x[0,1,1,8] + x[1,1,1,8] + x[2,1,1,8] <= 1
 one_per_cell[1,1,9]: x[0,1,1,9] + x[1,1,1,9] + x[2,1,1,9] <= 1
 one_per_cell[1,2,0]: x[0,1,2,0] + x[1,1,2,0] + x[2,1,2,0] <= 1
 one_per_cell[1,2,1]: x[0,1,2,1] + x[1,1,2,1] + x[2,1,2,1] <= 1
 one_per_cell[1,2,2]: x[0,1,2,2] + x[1,1,2,2] + x[2,1,2,2] <= 1
 one_per_cell[1,2,3]: x[0,1,2,3] + x[1,1,2,3] + x[2,1,2,3] <= 1
 one_per_cell[1,2,4]: x[0,1,2,4] + x[1,1,2,4] + x[2,1,2,4] <= 1
 one_per_cell[1,2,5]: x[0,1,2,5] + x[1,1,2,5] + x[2,1,2,5] <= 1
 one_per_cell[1,2,6]: x[0,1,2,6] + x[1,1,2,6] + x[2,1,2,6] <= 1
 one_per_cell[1,2,7]: x[0,1,2,7] + x[1,1,2,7] + x[2,1,2,7] <= 1
 one_per_cell[1,2,8]: x[0,1,2,8] + x[1,1,2,8] + x[2,1,2,8] <= 1
 one_per_cell[1,2,9]: x[0,1,2,9] + x[1,1,2,9] + x[2,1,2,9] <= 1
 one_per_cell[1,3,0]: x[0,1,3,0] + x[1,1,3,0] + x[2,1,3,0] <= 1
 one_per_cell[1,3,1]: x[0,1,3,1] + x[1,1,3,1] + x[2,1,3,1] <= 1
 one_per_cell[1,3,2]: x[0,1,3,2] + x[1,1,3,2] + x[2,1,3,2] <= 1
 one_per_cell[1,3,3]: x[0,1,3,3] + x[1,1,3,3] + x[2,1,3,3] <= 1
 one_per_cell[1,3,4]: x[0,1,3,4] + x[1,1,3,4] + x[2,1,3,4] <= 1
 one_per_cell[1,3,5]: x[0,1,3,5] + x[1,1,3,5] + x[2,1,3,5] <= 1
 one_per_cell[1,3,6]: x[0,1,3,6] + x[1,1,3,6] + x[2,1,3,6] <= 1
 one_per_cell[1,3,7]: x[0,1,3,7] + x[1,1,3,7] + x[2,1,3,7] <= 1
 one_per_cell[1,3,8]: x[0,1,3,8] + x[1,1,3,8] + x[2,1,3,8] <= 1
 one_per_cell[1,3,9]: x[0,1,3,9] + x[1,1,3,9] + x[2,1,3,9] <= 1
 one_per_cell[1,4,0]: x[0,1,4,0] + x[1,1,4,0] + x[2,1,4,0] <= 1
 one_per_cell[1,4,1]: x[0,1,4,1] + x[1,1,4,1] + x[2,1,4,1] <= 1
 one_per_cell[1,4,2]: x[0,1,4,2] + x[1,1,4,2] + x[2,1,4,2] <= 1
 one_per_cell[1,4,3]: x[0,1,4,3] + x[1,1,4,3] + x[2,1,4,3] <= 1
 one_per_cell[1,4,4]: x[0,1,4,4] + x[1,1,4,4] + x[2,1,4,4] <= 1
 one_per_cell[1,4,5]: x[0,1,4,5] + x[1,1,4,5] + x[2,1,4,5] <= 1
 one_per_cell[1,4,6]: x[0,1,4,6] + x[1,1,4,6] + x[2,1,4,6] <= 1
 one_per_cell[1,4,7]: x[0,1,4,7] + x[1,1,4,7] + x[2,1,4,7] <= 1
 one_per_cell[1,4,8]: x[0,1,4,8] + x[1,1,4,8] + x[2,1,4,8] <= 1
 one_per_cell[1,4,9]: x[0,1,4,9] + x[1,1,4,9] + x[2,1,4,9] <= 1
 one_per_cell[2,0,0]: x[0,2,0,0] + x[1,2,0,0] + x[2,2,0,0] <= 1
 one_per_cell[2,0,1]: x[0,2,0,1] + x[1,2,0,1] + x[2,2,0,1] <= 1
 one_per_cell[2,0,2]: x[0,2,0,2] + x[1,2,0,2] + x[2,2,0,2] <= 1
 one_per_cell[2,0,3]: x[0,2,0,3] + x[1,2,0,3] + x[2,2,0,3] <= 1
 one_per_cell[2,0,4]: x[0,2,0,4] + x[1,2,0,4] + x[2,2,0,4] <= 1
 one_per_cell[2,0,5]: x[0,2,0,5] + x[1,2,0,5] + x[2,2,0,5] <= 1
 one_per_cell[2,0,6]: x[0,2,0,6] + x[1,2,0,6] + x[2,2,0,6] <= 1
 one_per_cell[2,0,7]: x[0,2,0,7] + x[1,2,0,7] + x[2,2,0,7] <= 1
 one_per_cell[2,0,8]: x[0,2,0,8] + x[1,2,0,8] + x[2,2,0,8] <= 1
 one_per_cell[2,0,9]: x[0,2,0,9] + x[1,2,0,9] + x[2,2,0,9] <= 1
 one_per_cell[2,1,0]: x[0,2,1,0] + x[1,2,1,0] + x[2,2,1,0] <= 1
 one_per_cell[2,1,1]: x[0,2,1,1] + x[1,2,1,1] + x[2,2,1,1] <= 1
 one_per_cell[2,1,2]: x[0,2,1,2] + x[1,2,1,2] + x[2,2,1,2] <= 1
 one_per_cell[2,1,3]: x[0,2,1,3] + x[1,2,1,3] + x[2,2,1,3] <= 1
 one_per_cell[2,1,4]: x[0,2,1,4] + x[1,2,1,4] + x[2,2,1,4] <= 1
 one_per_cell[2,1,5]: x[0,2,1,5] + x[1,2,1,5] + x[2,2,1,5] <= 1
 one_per_cell[2,1,6]: x[0,2,1,6] + x[1,2,1,6] + x[2,2,1,6] <= 1
 one_per_cell[2,1,7]: x[0,2,1,7] + x[1,2,1,7] + x[2,2,1,7] <= 1
 one_per_cell[2,1,8]: x[0,2,1,8] + x[1,2,1,8] + x[2,2,1,8] <= 1
 one_per_cell[2,1,9]: x[0,2,1,9] + x[1,2,1,9] + x[2,2,1,9] <= 1
 one_per_cell[2,2,0]: x[0,2,2,0] + x[1,2,2,0] + x[2,2,2,0] <= 1
 one_per_cell[2,2,1]: x[0,2,2,1] + x[1,2,2,1] + x[2,2,2,1] <= 1
 one_per_cell[2,2,2]: x[0,2,2,2] + x[1,2,2,2] + x[2,2,2,2] <= 1
 one_per_cell[2,2,3]: x[0,2,2,3] + x[1,2,2,3] + x[2,2,2,3] <= 1
 one_per_cell[2,2,4]: x[0,2,2,4] + x[1,2,2,4] + x[2,2,2,4] <= 1
 one_per_cell[2,2,5]: x[0,2,2,5] + x[1,2,2,5] + x[2,2,2,5] <= 1
 one_per_cell[2,2,6]: x[0,2,2,6] + x[1,2,2,6] + x[2,2,2,6] <= 1
 one_per_cell[2,2,7]: x[0,2,2,7] + x[1,2,2,7] + x[2,2,2,7] <= 1
 one_per_cell[2,2,8]: x[0,2,2,8] + x[1,2,2,8] + x[2,2,2,8] <= 1
 one_per_cell[2,2,9]: x[0,2,2,9] + x[1,2,2,9] + x[2,2,2,9] <= 1
 one_per_cell[2,3,0]: x[0,2,3,0] + x[1,2,3,0] + x[2,2,3,0] <= 1
 one_per_cell[2,3,1]: x[0,2,3,1] + x[1,2,3,1] + x[2,2,3,1] <= 1
 one_per_cell[2,3,2]: x[0,2,3,2] + x[1,2,3,2] + x[2,2,3,2] <= 1
 one_per_cell[2,3,3]: x[0,2,3,3] + x[1,2,3,3] + x[2,2,3,3] <= 1
 one_per_cell[2,3,4]: x[0,2,3,4] + x[1,2,3,4] + x[2,2,3,4] <= 1
 one_per_cell[2,3,5]: x[0,2,3,5] + x[1,2,3,5] + x[2,2,3,5] <= 1
 one_per_cell[2,3,6]: x[0,2,3,6] + x[1,2,3,6] + x[2,2,3,6] <= 1
 one_per_cell[2,3,7]: x[0,2,3,7] + x[1,2,3,7] + x[2,2,3,7] <= 1
 one_per_cell[2,3,8]: x[0,2,3,8] + x[1,2,3,8] + x[2,2,3,8] <= 1
 one_per_cell[2,3,9]: x[0,2,3,9] + x[1,2,3,9] + x[2,2,3,9] <= 1
 one_per_cell[2,4,0]: x[0,2,4,0] + x[1,2,4,0] + x[2,2,4,0] <= 1
 one_per_cell[2,4,1]: x[0,2,4,1] + x[1,2,4,1] + x[2,2,4,1] <= 1
 one_per_cell[2,4,2]: x[0,2,4,2] + x[1,2,4,2] + x[2,2,4,2] <= 1
 one_per_cell[2,4,3]: x[0,2,4,3] + x[1,2,4,3] + x[2,2,4,3] <= 1
 one_per_cell[2,4,4]: x[0,2,4,4] + x[1,2,4,4] + x[2,2,4,4] <= 1
 one_per_cell[2,4,5]: x[0,2,4,5] + x[1,2,4,5] + x[2,2,4,5] <= 1
 one_per_cell[2,4,6]: x[0,2,4,6] + x[1,2,4,6] + x[2,2,4,6] <= 1
 one_per_cell[2,4,7]: x[0,2,4,7] + x[1,2,4,7] + x[2,2,4,7] <= 1
 one_per_cell[2,4,8]: x[0,2,4,8] + x[1,2,4,8] + x[2,2,4,8] <= 1
 one_per_cell[2,4,9]: x[0,2,4,9] + x[1,2,4,9] + x[2,2,4,9] <= 1
 one_per_cell[3,0,0]: x[0,3,0,0] + x[1,3,0,0] + x[2,3,0,0] <= 1
 one_per_cell[3,0,1]: x[0,3,0,1] + x[1,3,0,1] + x[2,3,0,1] <= 1
 one_per_cell[3,0,2]: x[0,3,0,2] + x[1,3,0,2] + x[2,3,0,2] <= 1
 one_per_cell[3,0,3]: x[0,3,0,3] + x[1,3,0,3] + x[2,3,0,3] <= 1
 one_per_cell[3,0,4]: x[0,3,0,4] + x[1,3,0,4] + x[2,3,0,4] <= 1
 one_per_cell[3,0,5]: x[0,3,0,5] + x[1,3,0,5] + x[2,3,0,5] <= 1
 one_per_cell[3,0,6]: x[0,3,0,6] + x[1,3,0,6] + x[2,3,0,6] <= 1
 one_per_cell[3,0,7]: x[0,3,0,7] + x[1,3,0,7] + x[2,3,0,7] <= 1
 one_per_cell[3,0,8]: x[0,3,0,8] + x[1,3,0,8] + x[2,3,0,8] <= 1
 one_per_cell[3,0,9]: x[0,3,0,9] + x[1,3,0,9] + x[2,3,0,9] <= 1
 one_per_cell[3,1,0]: x[0,3,1,0] + x[1,3,1,0] + x[2,3,1,0] <= 1
 one_per_cell[3,1,1]: x[0,3,1,1] + x[1,3,1,1] + x[2,3,1,1] <= 1
 one_per_cell[3,1,2]: x[0,3,1,2] + x[1,3,1,2] + x[2,3,1,2] <= 1
 one_per_cell[3,1,3]: x[0,3,1,3] + x[1,3,1,3] + x[2,3,1,3] <= 1
 one_per_cell[3,1,4]: x[0,3,1,4] + x[1,3,1,4] + x[2,3,1,4] <= 1
 one_per_cell[3,1,5]: x[0,3,1,5] + x[1,3,1,5] + x[2,3,1,5] <= 1
 one_per_cell[3,1,6]: x[0,3,1,6] + x[1,3,1,6] + x[2,3,1,6] <= 1
 one_per_cell[3,1,7]: x[0,3,1,7] + x[1,3,1,7] + x[2,3,1,7] <= 1
 one_per_cell[3,1,8]: x[0,3,1,8] + x[1,3,1,8] + x[2,3,1,8] <= 1
 one_per_cell[3,1,9]: x[0,3,1,9] + x[1,3,1,9] + x[2,3,1,9] <= 1
 one_per_cell[3,2,0]: x[0,3,2,0] + x[1,3,2,0] + x[2,3,2,0] <= 1
 one_per_cell[3,2,1]: x[0,3,2,1] + x[1,3,2,1] + x[2,3,2,1] <= 1
 one_per_cell[3,2,2]: x[0,3,2,2] + x[1,3,2,2] + x[2,3,2,2] <= 1
 one_per_cell[3,2,3]: x[0,3,2,3] + x[1,3,2,3] + x[2,3,2,3] <= 1
 one_per_cell[3,2,4]: x[0,3,2,4] + x[1,3,2,4] + x[2,3,2,4] <= 1
 one_per_cell[3,2,5]: x[0,3,2,5] + x[1,3,2,5] + x[2,3,2,5] <= 1
 one_per_cell[3,2,6]: x[0,3,2,6] + x[1,3,2,6] + x[2,3,2,6] <= 1
 one_per_cell[3,2,7]: x[0,3,2,7] + x[1,3,2,7] + x[2,3,2,7] <= 1
 one_per_cell[3,2,8]: x[0,3,2,8] + x[1,3,2,8] + x[2,3,2,8] <= 1
 one_per_cell[3,2,9]: x[0,3,2,9] + x[1,3,2,9] + x[2,3,2,9] <= 1
 one_per_cell[3,3,0]: x[0,3,3,0] + x[1,3,3,0] + x[2,3,3,0] <= 1
 one_per_cell[3,3,1]: x[0,3,3,1] + x[1,3,3,1] + x[2,3,3,1] <= 1
 one_per_cell[3,3,2]: x[0,3,3,2] + x[1,3,3,2] + x[2,3,3,2] <= 1
 one_per_cell[3,3,3]: x[0,3,3,3] + x[1,3,3,3] + x[2,3,3,3] <= 1
 one_per_cell[3,3,4]: x[0,3,3,4] + x[1,3,3,4] + x[2,3,3,4] <= 1
 one_per_cell[3,3,5]: x[0,3,3,5] + x[1,3,3,5] + x[2,3,3,5] <= 1
 one_per_cell[3,3,6]: x[0,3,3,6] + x[1,3,3,6] + x[2,3,3,6] <= 1
 one_per_cell[3,3,7]: x[0,3,3,7] + x[1,3,3,7] + x[2,3,3,7] <= 1
 one_per_cell[3,3,8]: x[0,3,3,8] + x[1,3,3,8] + x[2,3,3,8] <= 1
 one_per_cell[3,3,9]: x[0,3,3,9] + x[1,3,3,9] + x[2,3,3,9] <= 1
 one_per_cell[3,4,0]: x[0,3,4,0] + x[1,3,4,0] + x[2,3,4,0] <= 1
 one_per_cell[3,4,1]: x[0,3,4,1] + x[1,3,4,1] + x[2,3,4,1] <= 1
 one_per_cell[3,4,2]: x[0,3,4,2] + x[1,3,4,2] + x[2,3,4,2] <= 1
 one_per_cell[3,4,3]: x[0,3,4,3] + x[1,3,4,3] + x[2,3,4,3] <= 1
 one_per_cell[3,4,4]: x[0,3,4,4] + x[1,3,4,4] + x[2,3,4,4] <= 1
 one_per_cell[3,4,5]: x[0,3,4,5] + x[1,3,4,5] + x[2,3,4,5] <= 1
 one_per_cell[3,4,6]: x[0,3,4,6] + x[1,3,4,6] + x[2,3,4,6] <= 1
 one_per_cell[3,4,7]: x[0,3,4,7] + x[1,3,4,7] + x[2,3,4,7] <= 1
 one_per_cell[3,4,8]: x[0,3,4,8] + x[1,3,4,8] + x[2,3,4,8] <= 1
 one_per_cell[3,4,9]: x[0,3,4,9] + x[1,3,4,9] + x[2,3,4,9] <= 1
 one_per_cell[4,0,0]: x[0,4,0,0] + x[1,4,0,0] + x[2,4,0,0] <= 1
 one_per_cell[4,0,1]: x[0,4,0,1] + x[1,4,0,1] + x[2,4,0,1] <= 1
 one_per_cell[4,0,2]: x[0,4,0,2] + x[1,4,0,2] + x[2,4,0,2] <= 1
 one_per_cell[4,0,3]: x[0,4,0,3] + x[1,4,0,3] + x[2,4,0,3] <= 1
 one_per_cell[4,0,4]: x[0,4,0,4] + x[1,4,0,4] + x[2,4,0,4] <= 1
 one_per_cell[4,0,5]: x[0,4,0,5] + x[1,4,0,5] + x[2,4,0,5] <= 1
 one_per_cell[4,0,6]: x[0,4,0,6] + x[1,4,0,6] + x[2,4,0,6] <= 1
 one_per_cell[4,0,7]: x[0,4,0,7] + x[1,4,0,7] + x[2,4,0,7] <= 1
 one_per_cell[4,0,8]: x[0,4,0,8] + x[1,4,0,8] + x[2,4,0,8] <= 1
 one_per_cell[4,0,9]: x[0,4,0,9] + x[1,4,0,9] + x[2,4,0,9] <= 1
 one_per_cell[4,1,0]: x[0,4,1,0] + x[1,4,1,0] + x[2,4,1,0] <= 1
 one_per_cell[4,1,1]: x[0,4,1,1] + x[1,4,1,1] + x[2,4,1,1] <= 1
 one_per_cell[4,1,2]: x[0,4,1,2] + x[1,4,1,2] + x[2,4,1,2] <= 1
 one_per_cell[4,1,3]: x[0,4,1,3] + x[1,4,1,3] + x[2,4,1,3] <= 1
 one_per_cell[4,1,4]: x[0,4,1,4] + x[1,4,1,4] + x[2,4,1,4] <= 1
 one_per_cell[4,1,5]: x[0,4,1,5] + x[1,4,1,5] + x[2,4,1,5] <= 1
 one_per_cell[4,1,6]: x[0,4,1,6] + x[1,4,1,6] + x[2,4,1,6] <= 1
 one_per_cell[4,1,7]: x[0,4,1,7] + x[1,4,1,7] + x[2,4,1,7] <= 1
 one_per_cell[4,1,8]: x[0,4,1,8] + x[1,4,1,8] + x[2,4,1,8] <= 1
 one_per_cell[4,1,9]: x[0,4,1,9] + x[1,4,1,9] + x[2,4,1,9] <= 1
 one_per_cell[4,2,0]: x[0,4,2,0] + x[1,4,2,0] + x[2,4,2,0] <= 1
 one_per_cell[4,2,1]: x[0,4,2,1] + x[1,4,2,1] + x[2,4,2,1] <= 1
 one_per_cell[4,2,2]: x[0,4,2,2] + x[1,4,2,2] + x[2,4,2,2] <= 1
 one_per_cell[4,2,3]: x[0,4,2,3] + x[1,4,2,3] + x[2,4,2,3] <= 1
 one_per_cell[4,2,4]: x[0,4,2,4] + x[1,4,2,4] + x[2,4,2,4] <= 1
 one_per_cell[4,2,5]: x[0,4,2,5] + x[1,4,2,5] + x[2,4,2,5] <= 1
 one_per_cell[4,2,6]: x[0,4,2,6] + x[1,4,2,6] + x[2,4,2,6] <= 1
 one_per_cell[4,2,7]: x[0,4,2,7] + x[1,4,2,7] + x[2,4,2,7] <= 1
 one_per_cell[4,2,8]: x[0,4,2,8] + x[1,4,2,8] + x[2,4,2,8] <= 1
 one_per_cell[4,2,9]: x[0,4,2,9] + x[1,4,2,9] + x[2,4,2,9] <= 1
 one_per_cell[4,3,0]: x[0,4,3,0] + x[1,4,3,0] + x[2,4,3,0] <= 1
 one_per_cell[4,3,1]: x[0,4,3,1] + x[1,4,3,1] + x[2,4,3,1] <= 1
 one_per_cell[4,3,2]: x[0,4,3,2] + x[1,4,3,2] + x[2,4,3,2] <= 1
 one_per_cell[4,3,3]: x[0,4,3,3] + x[1,4,3,3] + x[2,4,3,3] <= 1
 one_per_cell[4,3,4]: x[0,4,3,4] + x[1,4,3,4] + x[2,4,3,4] <= 1
 one_per_cell[4,3,5]: x[0,4,3,5] + x[1,4,3,5] + x[2,4,3,5] <= 1
 one_per_cell[4,3,6]: x[0,4,3,6] + x[1,4,3,6] + x[2,4,3,6] <= 1
 one_per_cell[4,3,7]: x[0,4,3,7] + x[1,4,3,7] + x[2,4,3,7] <= 1
 one_per_cell[4,3,8]: x[0,4,3,8] + x[1,4,3,8] + x[2,4,3,8] <= 1
 one_per_cell[4,3,9]: x[0,4,3,9] + x[1,4,3,9] + x[2,4,3,9] <= 1
 one_per_cell[4,4,0]: x[0,4,4,0] + x[1,4,4,0] + x[2,4,4,0] <= 1
 one_per_cell[4,4,1]: x[0,4,4,1] + x[1,4,4,1] + x[2,4,4,1] <= 1
 one_per_cell[4,4,2]: x[0,4,4,2] + x[1,4,4,2] + x[2,4,4,2] <= 1
 one_per_cell[4,4,3]: x[0,4,4,3] + x[1,4,4,3] + x[2,4,4,3] <= 1
 one_per_cell[4,4,4]: x[0,4,4,4] + x[1,4,4,4] + x[2,4,4,4] <= 1
 one_per_cell[4,4,5]: x[0,4,4,5] + x[1,4,4,5] + x[2,4,4,5] <= 1
 one_per_cell[4,4,6]: x[0,4,4,6] + x[1,4,4,6] + x[2,4,4,6] <= 1
 one_per_cell[4,4,7]: x[0,4,4,7] + x[1,4,4,7] + x[2,4,4,7] <= 1
 one_per_cell[4,4,8]: x[0,4,4,8] + x[1,4,4,8] + x[2,4,4,8] <= 1
 one_per_cell[4,4,9]: x[0,4,4,9] + x[1,4,4,9] + x[2,4,4,9] <= 1
 one_cell_per_aircraft[0,0]: x[0,0,0,0] + x[0,0,1,0] + x[0,0,2,0]
   + x[0,0,3,0] + x[0,0,4,0] + x[0,1,0,0] + x[0,1,1,0] + x[0,1,2,0]
   + x[0,1,3,0] + x[0,1,4,0] + x[0,2,0,0] + x[0,2,1,0] + x[0,2,2,0]
   + x[0,2,3,0] + x[0,2,4,0] + x[0,3,0,0] + x[0,3,1,0] + x[0,3,2,0]
   + x[0,3,3,0] + x[0,3,4,0] + x[0,4,0,0] + x[0,4,1,0] + x[0,4,2,0]
   + x[0,4,3,0] + x[0,4,4,0] = 1
 one_cell_per_aircraft[0,1]: x[0,0,0,1] + x[0,0,1,1] + x[0,0,2,1]
   + x[0,0,3,1] + x[0,0,4,1] + x[0,1,0,1] + x[0,1,1,1] + x[0,1,2,1]
   + x[0,1,3,1] + x[0,1,4,1] + x[0,2,0,1] + x[0,2,1,1] + x[0,2,2,1]
   + x[0,2,3,1] + x[0,2,4,1] + x[0,3,0,1] + x[0,3,1,1] + x[0,3,2,1]
   + x[0,3,3,1] + x[0,3,4,1] + x[0,4,0,1] + x[0,4,1,1] + x[0,4,2,1]
   + x[0,4,3,1] + x[0,4,4,1] = 1
 one_cell_per_aircraft[0,2]: x[0,0,0,2] + x[0,0,1,2] + x[0,0,2,2]
   + x[0,0,3,2] + x[0,0,4,2] + x[0,1,0,2] + x[0,1,1,2] + x[0,1,2,2]
   + x[0,1,3,2] + x[0,1,4,2] + x[0,2,0,2] + x[0,2,1,2] + x[0,2,2,2]
   + x[0,2,3,2] + x[0,2,4,2] + x[0,3,0,2] + x[0,3,1,2] + x[0,3,2,2]
   + x[0,3,3,2] + x[0,3,4,2] + x[0,4,0,2] + x[0,4,1,2] + x[0,4,2,2]
   + x[0,4,3,2] + x[0,4,4,2] = 1
 one_cell_per_aircraft[0,3]: x[0,0,0,3] + x[0,0,1,3] + x[0,0,2,3]
   + x[0,0,3,3] + x[0,0,4,3] + x[0,1,0,3] + x[0,1,1,3] + x[0,1,2,3]
   + x[0,1,3,3] + x[0,1,4,3] + x[0,2,0,3] + x[0,2,1,3] + x[0,2,2,3]
   + x[0,2,3,3] + x[0,2,4,3] + x[0,3,0,3] + x[0,3,1,3] + x[0,3,2,3]
   + x[0,3,3,3] + x[0,3,4,3] + x[0,4,0,3] + x[0,4,1,3] + x[0,4,2,3]
   + x[0,4,3,3] + x[0,4,4,3] = 1
 one_cell_per_aircraft[0,4]: x[0,0,0,4] + x[0,0,1,4] + x[0,0,2,4]
   + x[0,0,3,4] + x[0,0,4,4] + x[0,1,0,4] + x[0,1,1,4] + x[0,1,2,4]
   + x[0,1,3,4] + x[0,1,4,4] + x[0,2,0,4] + x[0,2,1,4] + x[0,2,2,4]
   + x[0,2,3,4] + x[0,2,4,4] + x[0,3,0,4] + x[0,3,1,4] + x[0,3,2,4]
   + x[0,3,3,4] + x[0,3,4,4] + x[0,4,0,4] + x[0,4,1,4] + x[0,4,2,4]
   + x[0,4,3,4] + x[0,4,4,4] = 1
 one_cell_per_aircraft[0,5]: x[0,0,0,5] + x[0,0,1,5] + x[0,0,2,5]
   + x[0,0,3,5] + x[0,0,4,5] + x[0,1,0,5] + x[0,1,1,5] + x[0,1,2,5]
   + x[0,1,3,5] + x[0,1,4,5] + x[0,2,0,5] + x[0,2,1,5] + x[0,2,2,5]
   + x[0,2,3,5] + x[0,2,4,5] + x[0,3,0,5] + x[0,3,1,5] + x[0,3,2,5]
   + x[0,3,3,5] + x[0,3,4,5] + x[0,4,0,5] + x[0,4,1,5] + x[0,4,2,5]
   + x[0,4,3,5] + x[0,4,4,5] = 1
 one_cell_per_aircraft[0,6]: x[0,0,0,6] + x[0,0,1,6] + x[0,0,2,6]
   + x[0,0,3,6] + x[0,0,4,6] + x[0,1,0,6] + x[0,1,1,6] + x[0,1,2,6]
   + x[0,1,3,6] + x[0,1,4,6] + x[0,2,0,6] + x[0,2,1,6] + x[0,2,2,6]
   + x[0,2,3,6] + x[0,2,4,6] + x[0,3,0,6] + x[0,3,1,6] + x[0,3,2,6]
   + x[0,3,3,6] + x[0,3,4,6] + x[0,4,0,6] + x[0,4,1,6] + x[0,4,2,6]
   + x[0,4,3,6] + x[0,4,4,6] = 1
 one_cell_per_aircraft[0,7]: x[0,0,0,7] + x[0,0,1,7] + x[0,0,2,7]
   + x[0,0,3,7] + x[0,0,4,7] + x[0,1,0,7] + x[0,1,1,7] + x[0,1,2,7]
   + x[0,1,3,7] + x[0,1,4,7] + x[0,2,0,7] + x[0,2,1,7] + x[0,2,2,7]
   + x[0,2,3,7] + x[0,2,4,7] + x[0,3,0,7] + x[0,3,1,7] + x[0,3,2,7]
   + x[0,3,3,7] + x[0,3,4,7] + x[0,4,0,7] + x[0,4,1,7] + x[0,4,2,7]
   + x[0,4,3,7] + x[0,4,4,7] = 1
 one_cell_per_aircraft[0,8]: x[0,0,0,8] + x[0,0,1,8] + x[0,0,2,8]
   + x[0,0,3,8] + x[0,0,4,8] + x[0,1,0,8] + x[0,1,1,8] + x[0,1,2,8]
   + x[0,1,3,8] + x[0,1,4,8] + x[0,2,0,8] + x[0,2,1,8] + x[0,2,2,8]
   + x[0,2,3,8] + x[0,2,4,8] + x[0,3,0,8] + x[0,3,1,8] + x[0,3,2,8]
   + x[0,3,3,8] + x[0,3,4,8] + x[0,4,0,8] + x[0,4,1,8] + x[0,4,2,8]
   + x[0,4,3,8] + x[0,4,4,8] = 1
 one_cell_per_aircraft[0,9]: x[0,0,0,9] + x[0,0,1,9] + x[0,0,2,9]
   + x[0,0,3,9] + x[0,0,4,9] + x[0,1,0,9] + x[0,1,1,9] + x[0,1,2,9]
   + x[0,1,3,9] + x[0,1,4,9] + x[0,2,0,9] + x[0,2,1,9] + x[0,2,2,9]
   + x[0,2,3,9] + x[0,2,4,9] + x[0,3,0,9] + x[0,3,1,9] + x[0,3,2,9]
   + x[0,3,3,9] + x[0,3,4,9] + x[0,4,0,9] + x[0,4,1,9] + x[0,4,2,9]
   + x[0,4,3,9] + x[0,4,4,9] = 1
 one_cell_per_aircraft[1,0]: x[1,0,0,0] + x[1,0,1,0] + x[1,0,2,0]
   + x[1,0,3,0] + x[1,0,4,0] + x[1,1,0,0] + x[1,1,1,0] + x[1,1,2,0]
   + x[1,1,3,0] + x[1,1,4,0] + x[1,2,0,0] + x[1,2,1,0] + x[1,2,2,0]
   + x[1,2,3,0] + x[1,2,4,0] + x[1,3,0,0] + x[1,3,1,0] + x[1,3,2,0]
   + x[1,3,3,0] + x[1,3,4,0] + x[1,4,0,0] + x[1,4,1,0] + x[1,4,2,0]
   + x[1,4,3,0] + x[1,4,4,0] = 1
 one_cell_per_aircraft[1,1]: x[1,0,0,1] + x[1,0,1,1] + x[1,0,2,1]
   + x[1,0,3,1] + x[1,0,4,1] + x[1,1,0,1] + x[1,1,1,1] + x[1,1,2,1]
   + x[1,1,3,1] + x[1,1,4,1] + x[1,2,0,1] + x[1,2,1,1] + x[1,2,2,1]
   + x[1,2,3,1] + x[1,2,4,1] + x[1,3,0,1] + x[1,3,1,1] + x[1,3,2,1]
   + x[1,3,3,1] + x[1,3,4,1] + x[1,4,0,1] + x[1,4,1,1] + x[1,4,2,1]
   + x[1,4,3,1] + x[1,4,4,1] = 1
 one_cell_per_aircraft[1,2]: x[1,0,0,2] + x[1,0,1,2] + x[1,0,2,2]
   + x[1,0,3,2] + x[1,0,4,2] + x[1,1,0,2] + x[1,1,1,2] + x[1,1,2,2]
   + x[1,1,3,2] + x[1,1,4,2] + x[1,2,0,2] + x[1,2,1,2] + x[1,2,2,2]
   + x[1,2,3,2] + x[1,2,4,2] + x[1,3,0,2] + x[1,3,1,2] + x[1,3,2,2]
   + x[1,3,3,2] + x[1,3,4,2] + x[1,4,0,2] + x[1,4,1,2] + x[1,4,2,2]
   + x[1,4,3,2] + x[1,4,4,2] = 1
 one_cell_per_aircraft[1,3]: x[1,0,0,3] + x[1,0,1,3] + x[1,0,2,3]
   + x[1,0,3,3] + x[1,0,4,3] + x[1,1,0,3] + x[1,1,1,3] + x[1,1,2,3]
   + x[1,1,3,3] + x[1,1,4,3] + x[1,2,0,3] + x[1,2,1,3] + x[1,2,2,3]
   + x[1,2,3,3] + x[1,2,4,3] + x[1,3,0,3] + x[1,3,1,3] + x[1,3,2,3]
   + x[1,3,3,3] + x[1,3,4,3] + x[1,4,0,3] + x[1,4,1,3] + x[1,4,2,3]
   + x[1,4,3,3] + x[1,4,4,3] = 1
 one_cell_per_aircraft[1,4]: x[1,0,0,4] + x[1,0,1,4] + x[1,0,2,4]
   + x[1,0,3,4] + x[1,0,4,4] + x[1,1,0,4] + x[1,1,1,4] + x[1,1,2,4]
   + x[1,1,3,4] + x[1,1,4,4] + x[1,2,0,4] + x[1,2,1,4] + x[1,2,2,4]
   + x[1,2,3,4] + x[1,2,4,4] + x[1,3,0,4] + x[1,3,1,4] + x[1,3,2,4]
   + x[1,3,3,4] + x[1,3,4,4] + x[1,4,0,4] + x[1,4,1,4] + x[1,4,2,4]
   + x[1,4,3,4] + x[1,4,4,4] = 1
 one_cell_per_aircraft[1,5]: x[1,0,0,5] + x[1,0,1,5] + x[1,0,2,5]
   + x[1,0,3,5] + x[1,0,4,5] + x[1,1,0,5] + x[1,1,1,5] + x[1,1,2,5]
   + x[1,1,3,5] + x[1,1,4,5] + x[1,2,0,5] + x[1,2,1,5] + x[1,2,2,5]
   + x[1,2,3,5] + x[1,2,4,5] + x[1,3,0,5] + x[1,3,1,5] + x[1,3,2,5]
   + x[1,3,3,5] + x[1,3,4,5] + x[1,4,0,5] + x[1,4,1,5] + x[1,4,2,5]
   + x[1,4,3,5] + x[1,4,4,5] = 1
 one_cell_per_aircraft[1,6]: x[1,0,0,6] + x[1,0,1,6] + x[1,0,2,6]
   + x[1,0,3,6] + x[1,0,4,6] + x[1,1,0,6] + x[1,1,1,6] + x[1,1,2,6]
   + x[1,1,3,6] + x[1,1,4,6] + x[1,2,0,6] + x[1,2,1,6] + x[1,2,2,6]
   + x[1,2,3,6] + x[1,2,4,6] + x[1,3,0,6] + x[1,3,1,6] + x[1,3,2,6]
   + x[1,3,3,6] + x[1,3,4,6] + x[1,4,0,6] + x[1,4,1,6] + x[1,4,2,6]
   + x[1,4,3,6] + x[1,4,4,6] = 1
 one_cell_per_aircraft[1,7]: x[1,0,0,7] + x[1,0,1,7] + x[1,0,2,7]
   + x[1,0,3,7] + x[1,0,4,7] + x[1,1,0,7] + x[1,1,1,7] + x[1,1,2,7]
   + x[1,1,3,7] + x[1,1,4,7] + x[1,2,0,7] + x[1,2,1,7] + x[1,2,2,7]
   + x[1,2,3,7] + x[1,2,4,7] + x[1,3,0,7] + x[1,3,1,7] + x[1,3,2,7]
   + x[1,3,3,7] + x[1,3,4,7] + x[1,4,0,7] + x[1,4,1,7] + x[1,4,2,7]
   + x[1,4,3,7] + x[1,4,4,7] = 1
 one_cell_per_aircraft[1,8]: x[1,0,0,8] + x[1,0,1,8] + x[1,0,2,8]
   + x[1,0,3,8] + x[1,0,4,8] + x[1,1,0,8] + x[1,1,1,8] + x[1,1,2,8]
   + x[1,1,3,8] + x[1,1,4,8] + x[1,2,0,8] + x[1,2,1,8] + x[1,2,2,8]
   + x[1,2,3,8] + x[1,2,4,8] + x[1,3,0,8] + x[1,3,1,8] + x[1,3,2,8]
   + x[1,3,3,8] + x[1,3,4,8] + x[1,4,0,8] + x[1,4,1,8] + x[1,4,2,8]
   + x[1,4,3,8] + x[1,4,4,8] = 1
 one_cell_per_aircraft[1,9]: x[1,0,0,9] + x[1,0,1,9] + x[1,0,2,9]
   + x[1,0,3,9] + x[1,0,4,9] + x[1,1,0,9] + x[1,1,1,9] + x[1,1,2,9]
   + x[1,1,3,9] + x[1,1,4,9] + x[1,2,0,9] + x[1,2,1,9] + x[1,2,2,9]
   + x[1,2,3,9] + x[1,2,4,9] + x[1,3,0,9] + x[1,3,1,9] + x[1,3,2,9]
   + x[1,3,3,9] + x[1,3,4,9] + x[1,4,0,9] + x[1,4,1,9] + x[1,4,2,9]
   + x[1,4,3,9] + x[1,4,4,9] = 1
 one_cell_per_aircraft[2,0]: x[2,0,0,0] + x[2,0,1,0] + x[2,0,2,0]
   + x[2,0,3,0] + x[2,0,4,0] + x[2,1,0,0] + x[2,1,1,0] + x[2,1,2,0]
   + x[2,1,3,0] + x[2,1,4,0] + x[2,2,0,0] + x[2,2,1,0] + x[2,2,2,0]
   + x[2,2,3,0] + x[2,2,4,0] + x[2,3,0,0] + x[2,3,1,0] + x[2,3,2,0]
   + x[2,3,3,0] + x[2,3,4,0] + x[2,4,0,0] + x[2,4,1,0] + x[2,4,2,0]
   + x[2,4,3,0] + x[2,4,4,0] = 1
 one_cell_per_aircraft[2,1]: x[2,0,0,1] + x[2,0,1,1] + x[2,0,2,1]
   + x[2,0,3,1] + x[2,0,4,1] + x[2,1,0,1] + x[2,1,1,1] + x[2,1,2,1]
   + x[2,1,3,1] + x[2,1,4,1] + x[2,2,0,1] + x[2,2,1,1] + x[2,2,2,1]
   + x[2,2,3,1] + x[2,2,4,1] + x[2,3,0,1] + x[2,3,1,1] + x[2,3,2,1]
   + x[2,3,3,1] + x[2,3,4,1] + x[2,4,0,1] + x[2,4,1,1] + x[2,4,2,1]
   + x[2,4,3,1] + x[2,4,4,1] = 1
 one_cell_per_aircraft[2,2]: x[2,0,0,2] + x[2,0,1,2] + x[2,0,2,2]
   + x[2,0,3,2] + x[2,0,4,2] + x[2,1,0,2] + x[2,1,1,2] + x[2,1,2,2]
   + x[2,1,3,2] + x[2,1,4,2] + x[2,2,0,2] + x[2,2,1,2] + x[2,2,2,2]
   + x[2,2,3,2] + x[2,2,4,2] + x[2,3,0,2] + x[2,3,1,2] + x[2,3,2,2]
   + x[2,3,3,2] + x[2,3,4,2] + x[2,4,0,2] + x[2,4,1,2] + x[2,4,2,2]
   + x[2,4,3,2] + x[2,4,4,2] = 1
 one_cell_per_aircraft[2,3]: x[2,0,0,3] + x[2,0,1,3] + x[2,0,2,3]
   + x[2,0,3,3] + x[2,0,4,3] + x[2,1,0,3] + x[2,1,1,3] + x[2,1,2,3]
   + x[2,1,3,3] + x[2,1,4,3] + x[2,2,0,3] + x[2,2,1,3] + x[2,2,2,3]
   + x[2,2,3,3] + x[2,2,4,3] + x[2,3,0,3] + x[2,3,1,3] + x[2,3,2,3]
   + x[2,3,3,3] + x[2,3,4,3] + x[2,4,0,3] + x[2,4,1,3] + x[2,4,2,3]
   + x[2,4,3,3] + x[2,4,4,3] = 1
 one_cell_per_aircraft[2,4]: x[2,0,0,4] + x[2,0,1,4] + x[2,0,2,4]
   + x[2,0,3,4] + x[2,0,4,4] + x[2,1,0,4] + x[2,1,1,4] + x[2,1,2,4]
   + x[2,1,3,4] + x[2,1,4,4] + x[2,2,0,4] + x[2,2,1,4] + x[2,2,2,4]
   + x[2,2,3,4] + x[2,2,4,4] + x[2,3,0,4] + x[2,3,1,4] + x[2,3,2,4]
   + x[2,3,3,4] + x[2,3,4,4] + x[2,4,0,4] + x[2,4,1,4] + x[2,4,2,4]
   + x[2,4,3,4] + x[2,4,4,4] = 1
 one_cell_per_aircraft[2,5]: x[2,0,0,5] + x[2,0,1,5] + x[2,0,2,5]
   + x[2,0,3,5] + x[2,0,4,5] + x[2,1,0,5] + x[2,1,1,5] + x[2,1,2,5]
   + x[2,1,3,5] + x[2,1,4,5] + x[2,2,0,5] + x[2,2,1,5] + x[2,2,2,5]
   + x[2,2,3,5] + x[2,2,4,5] + x[2,3,0,5] + x[2,3,1,5] + x[2,3,2,5]
   + x[2,3,3,5] + x[2,3,4,5] + x[2,4,0,5] + x[2,4,1,5] + x[2,4,2,5]
   + x[2,4,3,5] + x[2,4,4,5] = 1
 one_cell_per_aircraft[2,6]: x[2,0,0,6] + x[2,0,1,6] + x[2,0,2,6]
   + x[2,0,3,6] + x[2,0,4,6] + x[2,1,0,6] + x[2,1,1,6] + x[2,1,2,6]
   + x[2,1,3,6] + x[2,1,4,6] + x[2,2,0,6] + x[2,2,1,6] + x[2,2,2,6]
   + x[2,2,3,6] + x[2,2,4,6] + x[2,3,0,6] + x[2,3,1,6] + x[2,3,2,6]
   + x[2,3,3,6] + x[2,3,4,6] + x[2,4,0,6] + x[2,4,1,6] + x[2,4,2,6]
   + x[2,4,3,6] + x[2,4,4,6] = 1
 one_cell_per_aircraft[2,7]: x[2,0,0,7] + x[2,0,1,7] + x[2,0,2,7]
   + x[2,0,3,7] + x[2,0,4,7] + x[2,1,0,7] + x[2,1,1,7] + x[2,1,2,7]
   + x[2,1,3,7] + x[2,1,4,7] + x[2,2,0,7] + x[2,2,1,7] + x[2,2,2,7]
   + x[2,2,3,7] + x[2,2,4,7] + x[2,3,0,7] + x[2,3,1,7] + x[2,3,2,7]
   + x[2,3,3,7] + x[2,3,4,7] + x[2,4,0,7] + x[2,4,1,7] + x[2,4,2,7]
   + x[2,4,3,7] + x[2,4,4,7] = 1
 one_cell_per_aircraft[2,8]: x[2,0,0,8] + x[2,0,1,8] + x[2,0,2,8]
   + x[2,0,3,8] + x[2,0,4,8] + x[2,1,0,8] + x[2,1,1,8] + x[2,1,2,8]
   + x[2,1,3,8] + x[2,1,4,8] + x[2,2,0,8] + x[2,2,1,8] + x[2,2,2,8]
   + x[2,2,3,8] + x[2,2,4,8] + x[2,3,0,8] + x[2,3,1,8] + x[2,3,2,8]
   + x[2,3,3,8] + x[2,3,4,8] + x[2,4,0,8] + x[2,4,1,8] + x[2,4,2,8]
   + x[2,4,3,8] + x[2,4,4,8] = 1
 one_cell_per_aircraft[2,9]: x[2,0,0,9] + x[2,0,1,9] + x[2,0,2,9]
   + x[2,0,3,9] + x[2,0,4,9] + x[2,1,0,9] + x[2,1,1,9] + x[2,1,2,9]
   + x[2,1,3,9] + x[2,1,4,9] + x[2,2,0,9] + x[2,2,1,9] + x[2,2,2,9]
   + x[2,2,3,9] + x[2,2,4,9] + x[2,3,0,9] + x[2,3,1,9] + x[2,3,2,9]
   + x[2,3,3,9] + x[2,3,4,9] + x[2,4,0,9] + x[2,4,1,9] + x[2,4,2,9]
   + x[2,4,3,9] + x[2,4,4,9] = 1
 is_at_water[0,0]: - x[0,0,0,0] - x[0,4,4,0] + wat[0,0] = 0
 is_at_water[0,1]: - x[0,0,0,1] - x[0,4,4,1] + wat[0,1] = 0
 is_at_water[0,2]: - x[0,0,0,2] - x[0,4,4,2] + wat[0,2] = 0
 is_at_water[0,3]: - x[0,0,0,3] - x[0,4,4,3] + wat[0,3] = 0
 is_at_water[0,4]: - x[0,0,0,4] - x[0,4,4,4] + wat[0,4] = 0
 is_at_water[0,5]: - x[0,0,0,5] - x[0,4,4,5] + wat[0,5] = 0
 is_at_water[0,6]: - x[0,0,0,6] - x[0,4,4,6] + wat[0,6] = 0
 is_at_water[0,7]: - x[0,0,0,7] - x[0,4,4,7] + wat[0,7] = 0
 is_at_water[0,8]: - x[0,0,0,8] - x[0,4,4,8] + wat[0,8] = 0
 is_at_water[0,9]: - x[0,0,0,9] - x[0,4,4,9] + wat[0,9] = 0
 is_at_water[1,0]: - x[1,0,0,0] - x[1,4,4,0] + wat[1,0] = 0
 is_at_water[1,1]: - x[1,0,0,1] - x[1,4,4,1] + wat[1,1] = 0
 is_at_water[1,2]: - x[1,0,0,2] - x[1,4,4,2] + wat[1,2] = 0
 is_at_water[1,3]: - x[1,0,0,3] - x[1,4,4,3] + wat[1,3] = 0
 is_at_water[1,4]: - x[1,0,0,4] - x[1,4,4,4] + wat[1,4] = 0
 is_at_water[1,5]: - x[1,0,0,5] - x[1,4,4,5] + wat[1,5] = 0
 is_at_water[1,6]: - x[1,0,0,6] - x[1,4,4,6] + wat[1,6] = 0
 is_at_water[1,7]: - x[1,0,0,7] - x[1,4,4,7] + wat[1,7] = 0
 is_at_water[1,8]: - x[1,0,0,8] - x[1,4,4,8] + wat[1,8] = 0
 is_at_water[1,9]: - x[1,0,0,9] - x[1,4,4,9] + wat[1,9] = 0
 is_at_water[2,0]: - x[2,0,0,0] - x[2,4,4,0] + wat[2,0] = 0
 is_at_water[2,1]: - x[2,0,0,1] - x[2,4,4,1] + wat[2,1] = 0
 is_at_water[2,2]: - x[2,0,0,2] - x[2,4,4,2] + wat[2,2] = 0
 is_at_water[2,3]: - x[2,0,0,3] - x[2,4,4,3] + wat[2,3] = 0
 is_at_water[2,4]: - x[2,0,0,4] - x[2,4,4,4] + wat[2,4] = 0
 is_at_water[2,5]: - x[2,0,0,5] - x[2,4,4,5] + wat[2,5] = 0
 is_at_water[2,6]: - x[2,0,0,6] - x[2,4,4,6] + wat[2,6] = 0
 is_at_water[2,7]: - x[2,0,0,7] - x[2,4,4,7] + wat[2,7] = 0
 is_at_water[2,8]: - x[2,0,0,8] - x[2,4,4,8] + wat[2,8] = 0
 is_at_water[2,9]: - x[2,0,0,9] - x[2,4,4,9] + wat[2,9] = 0
 move_0_0_00_03: x[0,0,0,0] + x[0,0,3,1] <= 1
 move_0_0_00_04: x[0,0,0,0] + x[0,0,4,1] <= 1
 move_0_0_00_12: x[0,0,0,0] + x[0,1,2,1] <= 1
 move_0_0_00_13: x[0,0,0,0] + x[0,1,3,1] <= 1
 move_0_0_00_14: x[0,0,0,0] + x[0,1,4,1] <= 1
 move_0_0_00_21: x[0,0,0,0] + x[0,2,1,1] <= 1
 move_0_0_00_22: x[0,0,0,0] + x[0,2,2,1] <= 1
 move_0_0_00_23: x[0,0,0,0] + x[0,2,3,1] <= 1
 move_0_0_00_24: x[0,0,0,0] + x[0,2,4,1] <= 1
 move_0_0_00_30: x[0,0,0,0] + x[0,3,0,1] <= 1
 move_0_0_00_31: x[0,0,0,0] + x[0,3,1,1] <= 1
 move_0_0_00_32: x[0,0,0,0] + x[0,3,2,1] <= 1
 move_0_0_00_33: x[0,0,0,0] + x[0,3,3,1] <= 1
 move_0_0_00_34: x[0,0,0,0] + x[0,3,4,1] <= 1
 move_0_0_00_40: x[0,0,0,0] + x[0,4,0,1] <= 1
 move_0_0_00_41: x[0,0,0,0] + x[0,4,1,1] <= 1
 move_0_0_00_42: x[0,0,0,0] + x[0,4,2,1] <= 1
 move_0_0_00_43: x[0,0,0,0] + x[0,4,3,1] <= 1
 move_0_0_00_44: x[0,0,0,0] + x[0,4,4,1] <= 1
 move_0_0_01_04: x[0,0,1,0] + x[0,0,4,1] <= 1
 move_0_0_01_13: x[0,0,1,0] + x[0,1,3,1] <= 1
 move_0_0_01_14: x[0,0,1,0] + x[0,1,4,1] <= 1
 move_0_0_01_20: x[0,0,1,0] + x[0,2,0,1] <= 1
 move_0_0_01_22: x[0,0,1,0] + x[0,2,2,1] <= 1
 move_0_0_01_23: x[0,0,1,0] + x[0,2,3,1] <= 1
 move_0_0_01_24: x[0,0,1,0] + x[0,2,4,1] <= 1
 move_0_0_01_30: x[0,0,1,0] + x[0,3,0,1] <= 1
 move_0_0_01_31: x[0,0,1,0] + x[0,3,1,1] <= 1
 move_0_0_01_32: x[0,0,1,0] + x[0,3,2,1] <= 1
 move_0_0_01_33: x[0,0,1,0] + x[0,3,3,1] <= 1
 move_0_0_01_34: x[0,0,1,0] + x[0,3,4,1] <= 1
 move_0_0_01_40: x[0,0,1,0] + x[0,4,0,1] <= 1
 move_0_0_01_41: x[0,0,1,0] + x[0,4,1,1] <= 1
 move_0_0_01_42: x[0,0,1,0] + x[0,4,2,1] <= 1
 move_0_0_01_43: x[0,0,1,0] + x[0,4,3,1] <= 1
 move_0_0_01_44: x[0,0,1,0] + x[0,4,4,1] <= 1
 move_0_0_02_10: x[0,0,2,0] + x[0,1,0,1] <= 1
 move_0_0_02_14: x[0,0,2,0] + x[0,1,4,1] <= 1
 move_0_0_02_20: x[0,0,2,0] + x[0,2,0,1] <= 1
 move_0_0_02_21: x[0,0,2,0] + x[0,2,1,1] <= 1
 move_0_0_02_23: x[0,0,2,0] + x[0,2,3,1] <= 1
 move_0_0_02_24: x[0,0,2,0] + x[0,2,4,1] <= 1
 move_0_0_02_30: x[0,0,2,0] + x[0,3,0,1] <= 1
 move_0_0_02_31: x[0,0,2,0] + x[0,3,1,1] <= 1
 move_0_0_02_32: x[0,0,2,0] + x[0,3,2,1] <= 1
 move_0_0_02_33: x[0,0,2,0] + x[0,3,3,1] <= 1
 move_0_0_02_34: x[0,0,2,0] + x[0,3,4,1] <= 1
 move_0_0_02_40: x[0,0,2,0] + x[0,4,0,1] <= 1
 move_0_0_02_41: x[0,0,2,0] + x[0,4,1,1] <= 1
 move_0_0_02_42: x[0,0,2,0] + x[0,4,2,1] <= 1
 move_0_0_02_43: x[0,0,2,0] + x[0,4,3,1] <= 1
 move_0_0_02_44: x[0,0,2,0] + x[0,4,4,1] <= 1
 move_0_0_03_00: x[0,0,0,1] + x[0,0,3,0] <= 1
 move_0_0_03_10: x[0,0,3,0] + x[0,1,0,1] <= 1
 move_0_0_03_11: x[0,0,3,0] + x[0,1,1,1] <= 1
 move_0_0_03_20: x[0,0,3,0] + x[0,2,0,1] <= 1
 move_0_0_03_21: x[0,0,3,0] + x[0,2,1,1] <= 1
 move_0_0_03_22: x[0,0,3,0] + x[0,2,2,1] <= 1
 move_0_0_03_24: x[0,0,3,0] + x[0,2,4,1] <= 1
 move_0_0_03_30: x[0,0,3,0] + x[0,3,0,1] <= 1
 move_0_0_03_31: x[0,0,3,0] + x[0,3,1,1] <= 1
 move_0_0_03_32: x[0,0,3,0] + x[0,3,2,1] <= 1
 move_0_0_03_33: x[0,0,3,0] + x[0,3,3,1] <= 1
 move_0_0_03_34: x[0,0,3,0] + x[0,3,4,1] <= 1
 move_0_0_03_40: x[0,0,3,0] + x[0,4,0,1] <= 1
 move_0_0_03_41: x[0,0,3,0] + x[0,4,1,1] <= 1
 move_0_0_03_42: x[0,0,3,0] + x[0,4,2,1] <= 1
 move_0_0_03_43: x[0,0,3,0] + x[0,4,3,1] <= 1
 move_0_0_03_44: x[0,0,3,0] + x[0,4,4,1] <= 1
 move_0_0_04_00: x[0,0,0,1] + x[0,0,4,0] <= 1
 move_0_0_04_01: x[0,0,1,1] + x[0,0,4,0] <= 1
 move_0_0_04_10: x[0,0,4,0] + x[0,1,0,1] <= 1
 move_0_0_04_11: x[0,0,4,0] + x[0,1,1,1] <= 1
 move_0_0_04_12: x[0,0,4,0] + x[0,1,2,1] <= 1
 move_0_0_04_20: x[0,0,4,0] + x[0,2,0,1] <= 1
 move_0_0_04_21: x[0,0,4,0] + x[0,2,1,1] <= 1
 move_0_0_04_22: x[0,0,4,0] + x[0,2,2,1] <= 1
 move_0_0_04_23: x[0,0,4,0] + x[0,2,3,1] <= 1
 move_0_0_04_30: x[0,0,4,0] + x[0,3,0,1] <= 1
 move_0_0_04_31: x[0,0,4,0] + x[0,3,1,1] <= 1
 move_0_0_04_32: x[0,0,4,0] + x[0,3,2,1] <= 1
 move_0_0_04_33: x[0,0,4,0] + x[0,3,3,1] <= 1
 move_0_0_04_34: x[0,0,4,0] + x[0,3,4,1] <= 1
 move_0_0_04_40: x[0,0,4,0] + x[0,4,0,1] <= 1
 move_0_0_04_41: x[0,0,4,0] + x[0,4,1,1] <= 1
 move_0_0_04_42: x[0,0,4,0] + x[0,4,2,1] <= 1
 move_0_0_04_43: x[0,0,4,0] + x[0,4,3,1] <= 1
 move_0_0_04_44: x[0,0,4,0] + x[0,4,4,1] <= 1
 move_0_0_10_02: x[0,0,2,1] + x[0,1,0,0] <= 1
 move_0_0_10_03: x[0,0,3,1] + x[0,1,0,0] <= 1
 move_0_0_10_04: x[0,0,4,1] + x[0,1,0,0] <= 1
 move_0_0_10_13: x[0,1,0,0] + x[0,1,3,1] <= 1
 move_0_0_10_14: x[0,1,0,0] + x[0,1,4,1] <= 1
 move_0_0_10_22: x[0,1,0,0] + x[0,2,2,1] <= 1
 move_0_0_10_23: x[0,1,0,0] + x[0,2,3,1] <= 1
 move_0_0_10_24: x[0,1,0,0] + x[0,2,4,1] <= 1
 move_0_0_10_31: x[0,1,0,0] + x[0,3,1,1] <= 1
 move_0_0_10_32: x[0,1,0,0] + x[0,3,2,1] <= 1
 move_0_0_10_33: x[0,1,0,0] + x[0,3,3,1] <= 1
 move_0_0_10_34: x[0,1,0,0] + x[0,3,4,1] <= 1
 move_0_0_10_40: x[0,1,0,0] + x[0,4,0,1] <= 1
 move_0_0_10_41: x[0,1,0,0] + x[0,4,1,1] <= 1
 move_0_0_10_42: x[0,1,0,0] + x[0,4,2,1] <= 1
 move_0_0_10_43: x[0,1,0,0] + x[0,4,3,1] <= 1
 move_0_0_10_44: x[0,1,0,0] + x[0,4,4,1] <= 1
 move_0_0_11_03: x[0,0,3,1] + x[0,1,1,0] <= 1
 move_0_0_11_04: x[0,0,4,1] + x[0,1,1,0] <= 1
 move_0_0_11_14: x[0,1,1,0] + x[0,1,4,1] <= 1
 move_0_0_11_23: x[0,1,1,0] + x[0,2,3,1] <= 1
 move_0_0_11_24: x[0,1,1,0] + x[0,2,4,1] <= 1
 move_0_0_11_30: x[0,1,1,0] + x[0,3,0,1] <= 1
 move_0_0_11_32: x[0,1,1,0] + x[0,3,2,1] <= 1
 move_0_0_11_33: x[0,1,1,0] + x[0,3,3,1] <= 1
 move_0_0_11_34: x[0,1,1,0] + x[0,3,4,1] <= 1
 move_0_0_11_40: x[0,1,1,0] + x[0,4,0,1] <= 1
 move_0_0_11_41: x[0,1,1,0] + x[0,4,1,1] <= 1
 move_0_0_11_42: x[0,1,1,0] + x[0,4,2,1] <= 1
 move_0_0_11_43: x[0,1,1,0] + x[0,4,3,1] <= 1
 move_0_0_11_44: x[0,1,1,0] + x[0,4,4,1] <= 1
 move_0_0_12_00: x[0,0,0,1] + x[0,1,2,0] <= 1
 move_0_0_12_04: x[0,0,4,1] + x[0,1,2,0] <= 1
 move_0_0_12_20: x[0,1,2,0] + x[0,2,0,1] <= 1
 move_0_0_12_24: x[0,1,2,0] + x[0,2,4,1] <= 1
 move_0_0_12_30: x[0,1,2,0] + x[0,3,0,1] <= 1
 move_0_0_12_31: x[0,1,2,0] + x[0,3,1,1] <= 1
 move_0_0_12_33: x[0,1,2,0] + x[0,3,3,1] <= 1
 move_0_0_12_34: x[0,1,2,0] + x[0,3,4,1] <= 1
 move_0_0_12_40: x[0,1,2,0] + x[0,4,0,1] <= 1
 move_0_0_12_41: x[0,1,2,0] + x[0,4,1,1] <= 1
 move_0_0_12_42: x[0,1,2,0] + x[0,4,2,1] <= 1
 move_0_0_12_43: x[0,1,2,0] + x[0,4,3,1] <= 1
 move_0_0_12_44: x[0,1,2,0] + x[0,4,4,1] <= 1
 move_0_0_13_00: x[0,0,0,1] + x[0,1,3,0] <= 1
 move_0_0_13_01: x[0,0,1,1] + x[0,1,3,0] <= 1
 move_0_0_13_10: x[0,1,0,1] + x[0,1,3,0] <= 1
 move_0_0_13_20: x[0,1,3,0] + x[0,2,0,1] <= 1
 move_0_0_13_21: x[0,1,3,0] + x[0,2,1,1] <= 1
 move_0_0_13_30: x[0,1,3,0] + x[0,3,0,1] <= 1
 move_0_0_13_31: x[0,1,3,0] + x[0,3,1,1] <= 1
 move_0_0_13_32: x[0,1,3,0] + x[0,3,2,1] <= 1
 move_0_0_13_34: x[0,1,3,0] + x[0,3,4,1] <= 1
 move_0_0_13_40: x[0,1,3,0] + x[0,4,0,1] <= 1
 move_0_0_13_41: x[0,1,3,0] + x[0,4,1,1] <= 1
 move_0_0_13_42: x[0,1,3,0] + x[0,4,2,1] <= 1
 move_0_0_13_43: x[0,1,3,0] + x[0,4,3,1] <= 1
 move_0_0_13_44: x[0,1,3,0] + x[0,4,4,1] <= 1
 move_0_0_14_00: x[0,0,0,1] + x[0,1,4,0] <= 1
 move_0_0_14_01: x[0,0,1,1] + x[0,1,4,0] <= 1
 move_0_0_14_02: x[0,0,2,1] + x[0,1,4,0] <= 1
 move_0_0_14_10: x[0,1,0,1] + x[0,1,4,0] <= 1
 move_0_0_14_11: x[0,1,1,1] + x[0,1,4,0] <= 1
 move_0_0_14_20: x[0,1,4,0] + x[0,2,0,1] <= 1
 move_0_0_14_21: x[0,1,4,0] + x[0,2,1,1] <= 1
 move_0_0_14_22: x[0,1,4,0] + x[0,2,2,1] <= 1
 move_0_0_14_30: x[0,1,4,0] + x[0,3,0,1] <= 1
 move_0_0_14_31: x[0,1,4,0] + x[0,3,1,1] <= 1
 move_0_0_14_32: x[0,1,4,0] + x[0,3,2,1] <= 1
 move_0_0_14_33: x[0,1,4,0] + x[0,3,3,1] <= 1
 move_0_0_14_40: x[0,1,4,0] + x[0,4,0,1] <= 1
 move_0_0_14_41: x[0,1,4,0] + x[0,4,1,1] <= 1
 move_0_0_14_42: x[0,1,4,0] + x[0,4,2,1] <= 1
 move_0_0_14_43: x[0,1,4,0] + x[0,4,3,1] <= 1
 move_0_0_14_44: x[0,1,4,0] + x[0,4,4,1] <= 1
 move_0_0_20_01: x[0,0,1,1] + x[0,2,0,0] <= 1
 move_0_0_20_02: x[0,0,2,1] + x[0,2,0,0] <= 1
 move_0_0_20_03: x[0,0,3,1] + x[0,2,0,0] <= 1
 move_0_0_20_04: x[0,0,4,1] + x[0,2,0,0] <= 1
 move_0_0_20_12: x[0,1,2,1] + x[0,2,0,0] <= 1
 move_0_0_20_13: x[0,1,3,1] + x[0,2,0,0] <= 1
 move_0_0_20_14: x[0,1,4,1] + x[0,2,0,0] <= 1
 move_0_0_20_23: x[0,2,0,0] + x[0,2,3,1] <= 1
 move_0_0_20_24: x[0,2,0,0] + x[0,2,4,1] <= 1
 move_0_0_20_32: x[0,2,0,0] + x[0,3,2,1] <= 1
 move_0_0_20_33: x[0,2,0,0] + x[0,3,3,1] <= 1
 move_0_0_20_34: x[0,2,0,0] + x[0,3,4,1] <= 1
 move_0_0_20_41: x[0,2,0,0] + x[0,4,1,1] <= 1
 move_0_0_20_42: x[0,2,0,0] + x[0,4,2,1] <= 1
 move_0_0_20_43: x[0,2,0,0] + x[0,4,3,1] <= 1
 move_0_0_20_44: x[0,2,0,0] + x[0,4,4,1] <= 1
 move_0_0_21_00: x[0,0,0,1] + x[0,2,1,0] <= 1
 move_0_0_21_02: x[0,0,2,1] + x[0,2,1,0] <= 1
 move_0_0_21_03: x[0,0,3,1] + x[0,2,1,0] <= 1
 move_0_0_21_04: x[0,0,4,1] + x[0,2,1,0] <= 1
 move_0_0_21_13: x[0,1,3,1] + x[0,2,1,0] <= 1
 move_0_0_21_14: x[0,1,4,1] + x[0,2,1,0] <= 1
 move_0_0_21_24: x[0,2,1,0] + x[0,2,4,1] <= 1
 move_0_0_21_33: x[0,2,1,0] + x[0,3,3,1] <= 1
 move_0_0_21_34: x[0,2,1,0] + x[0,3,4,1] <= 1
 move_0_0_21_40: x[0,2,1,0] + x[0,4,0,1] <= 1
 move_0_0_21_42: x[0,2,1,0] + x[0,4,2,1] <= 1
 move_0_0_21_43: x[0,2,1,0] + x[0,4,3,1] <= 1
 move_0_0_21_44: x[0,2,1,0] + x[0,4,4,1] <= 1
 move_0_0_22_00: x[0,0,0,1] + x[0,2,2,0] <= 1
 move_0_0_22_01: x[0,0,1,1] + x[0,2,2,0] <= 1
 move_0_0_22_03: x[0,0,3,1] + x[0,2,2,0] <= 1
 move_0_0_22_04: x[0,0,4,1] + x[0,2,2,0] <= 1
 move_0_0_22_10: x[0,1,0,1] + x[0,2,2,0] <= 1
 move_0_0_22_14: x[0,1,4,1] + x[0,2,2,0] <= 1
 move_0_0_22_30: x[0,2,2,0] + x[0,3,0,1] <= 1
 move_0_0_22_34: x[0,2,2,0] + x[0,3,4,1] <= 1
 move_0_0_22_40: x[0,2,2,0] + x[0,4,0,1] <= 1
 move_0_0_22_41: x[0,2,2,0] + x[0,4,1,1] <= 1
 move_0_0_22_43: x[0,2,2,0] + x[0,4,3,1] <= 1
 move_0_0_22_44: x[0,2,2,0] + x[0,4,4,1] <= 1
 move_0_0_23_00: x[0,0,0,1] + x[0,2,3,0] <= 1
 move_0_0_23_01: x[0,0,1,1] + x[0,2,3,0] <= 1
 move_0_0_23_02: x[0,0,2,1] + x[0,2,3,0] <= 1
 move_0_0_23_04: x[0,0,4,1] + x[0,2,3,0] <= 1
 move_0_0_23_10: x[0,1,0,1] + x[0,2,3,0] <= 1
 move_0_0_23_11: x[0,1,1,1] + x[0,2,3,0] <= 1
 move_0_0_23_20: x[0,2,0,1] + x[0,2,3,0] <= 1
 move_0_0_23_30: x[0,2,3,0] + x[0,3,0,1] <= 1
 move_0_0_23_31: x[0,2,3,0] + x[0,3,1,1] <= 1
 move_0_0_23_40: x[0,2,3,0] + x[0,4,0,1] <= 1
 move_0_0_23_41: x[0,2,3,0] + x[0,4,1,1] <= 1
 move_0_0_23_42: x[0,2,3,0] + x[0,4,2,1] <= 1
 move_0_0_23_44: x[0,2,3,0] + x[0,4,4,1] <= 1
 move_0_0_24_00: x[0,0,0,1] + x[0,2,4,0] <= 1
 move_0_0_24_01: x[0,0,1,1] + x[0,2,4,0] <= 1
 move_0_0_24_02: x[0,0,2,1] + x[0,2,4,0] <= 1
 move_0_0_24_03: x[0,0,3,1] + x[0,2,4,0] <= 1
 move_0_0_24_10: x[0,1,0,1] + x[0,2,4,0] <= 1
 move_0_0_24_11: x[0,1,1,1] + x[0,2,4,0] <= 1
 move_0_0_24_12: x[0,1,2,1] + x[0,2,4,0] <= 1
 move_0_0_24_20: x[0,2,0,1] + x[0,2,4,0] <= 1
 move_0_0_24_21: x[0,2,1,1] + x[0,2,4,0] <= 1
 move_0_0_24_30: x[0,2,4,0] + x[0,3,0,1] <= 1
 move_0_0_24_31: x[0,2,4,0] + x[0,3,1,1] <= 1
 move_0_0_24_32: x[0,2,4,0] + x[0,3,2,1] <= 1
 move_0_0_24_40: x[0,2,4,0] + x[0,4,0,1] <= 1
 move_0_0_24_41: x[0,2,4,0] + x[0,4,1,1] <= 1
 move_0_0_24_42: x[0,2,4,0] + x[0,4,2,1] <= 1
 move_0_0_24_43: x[0,2,4,0] + x[0,4,3,1] <= 1
 move_0_0_30_00: x[0,0,0,1] + x[0,3,0,0] <= 1
 move_0_0_30_01: x[0,0,1,1] + x[0,3,0,0] <= 1
 move_0_0_30_02: x[0,0,2,1] + x[0,3,0,0] <= 1
 move_0_0_30_03: x[0,0,3,1] + x[0,3,0,0] <= 1
 move_0_0_30_04: x[0,0,4,1] + x[0,3,0,0] <= 1
 move_0_0_30_11: x[0,1,1,1] + x[0,3,0,0] <= 1
 move_0_0_30_12: x[0,1,2,1] + x[0,3,0,0] <= 1
 move_0_0_30_13: x[0,1,3,1] + x[0,3,0,0] <= 1
 move_0_0_30_14: x[0,1,4,1] + x[0,3,0,0] <= 1
 move_0_0_30_22: x[0,2,2,1] + x[0,3,0,0] <= 1
 move_0_0_30_23: x[0,2,3,1] + x[0,3,0,0] <= 1
 move_0_0_30_24: x[0,2,4,1] + x[0,3,0,0] <= 1
 move_0_0_30_33: x[0,3,0,0] + x[0,3,3,1] <= 1
 move_0_0_30_34: x[0,3,0,0] + x[0,3,4,1] <= 1
 move_0_0_30_42: x[0,3,0,0] + x[0,4,2,1] <= 1
 move_0_0_30_43: x[0,3,0,0] + x[0,4,3,1] <= 1
 move_0_0_30_44: x[0,3,0,0] + x[0,4,4,1] <= 1
 move_0_0_31_00: x[0,0,0,1] + x[0,3,1,0] <= 1
 move_0_0_31_01: x[0,0,1,1] + x[0,3,1,0] <= 1
 move_0_0_31_02: x[0,0,2,1] + x[0,3,1,0] <= 1
 move_0_0_31_03: x[0,0,3,1] + x[0,3,1,0] <= 1
 move_0_0_31_04: x[0,0,4,1] + x[0,3,1,0] <= 1
 move_0_0_31_10: x[0,1,0,1] + x[0,3,1,0] <= 1
 move_0_0_31_12: x[0,1,2,1] + x[0,3,1,0] <= 1
 move_0_0_31_13: x[0,1,3,1] + x[0,3,1,0] <= 1
 move_0_0_31_14: x[0,1,4,1] + x[0,3,1,0] <= 1
 move_0_0_31_23: x[0,2,3,1] + x[0,3,1,0] <= 1
 move_0_0_31_24: x[0,2,4,1] + x[0,3,1,0] <= 1
 move_0_0_31_34: x[0,3,1,0] + x[0,3,4,1] <= 1
 move_0_0_31_43: x[0,3,1,0] + x[0,4,3,1] <= 1
 move_0_0_31_44: x[0,3,1,0] + x[0,4,4,1] <= 1
 move_0_0_32_00: x[0,0,0,1] + x[0,3,2,0] <= 1
 move_0_0_32_01: x[0,0,1,1] + x[0,3,2,0] <= 1
 move_0_0_32_02: x[0,0,2,1] + x[0,3,2,0] <= 1
 move_0_0_32_03: x[0,0,3,1] + x[0,3,2,0] <= 1
 move_0_0_32_04: x[0,0,4,1] + x[0,3,2,0] <= 1
 move_0_0_32_10: x[0,1,0,1] + x[0,3,2,0] <= 1
 move_0_0_32_11: x[0,1,1,1] + x[0,3,2,0] <= 1
 move_0_0_32_13: x[0,1,3,1] + x[0,3,2,0] <= 1
 move_0_0_32_14: x[0,1,4,1] + x[0,3,2,0] <= 1
 move_0_0_32_20: x[0,2,0,1] + x[0,3,2,0] <= 1
 move_0_0_32_24: x[0,2,4,1] + x[0,3,2,0] <= 1
 move_0_0_32_40: x[0,3,2,0] + x[0,4,0,1] <= 1
 move_0_0_32_44: x[0,3,2,0] + x[0,4,4,1] <= 1
 move_0_0_33_00: x[0,0,0,1] + x[0,3,3,0] <= 1
 move_0_0_33_01: x[0,0,1,1] + x[0,3,3,0] <= 1
 move_0_0_33_02: x[0,0,2,1] + x[0,3,3,0] <= 1
 move_0_0_33_03: x[0,0,3,1] + x[0,3,3,0] <= 1
 move_0_0_33_04: x[0,0,4,1] + x[0,3,3,0] <= 1
 move_0_0_33_10: x[0,1,0,1] + x[0,3,3,0] <= 1
 move_0_0_33_11: x[0,1,1,1] + x[0,3,3,0] <= 1
 move_0_0_33_12: x[0,1,2,1] + x[0,3,3,0] <= 1
 move_0_0_33_14: x[0,1,4,1] + x[0,3,3,0] <= 1
 move_0_0_33_20: x[0,2,0,1] + x[0,3,3,0] <= 1
 move_0_0_33_21: x[0,2,1,1] + x[0,3,3,0] <= 1
 move_0_0_33_30: x[0,3,0,1] + x[0,3,3,0] <= 1
 move_0_0_33_40: x[0,3,3,0] + x[0,4,0,1] <= 1
 move_0_0_33_41: x[0,3,3,0] + x[0,4,1,1] <= 1
 move_0_0_34_00: x[0,0,0,1] + x[0,3,4,0] <= 1
 move_0_0_34_01: x[0,0,1,1] + x[0,3,4,0] <= 1
 move_0_0_34_02: x[0,0,2,1] + x[0,3,4,0] <= 1
 move_0_0_34_03: x[0,0,3,1] + x[0,3,4,0] <= 1
 move_0_0_34_04: x[0,0,4,1] + x[0,3,4,0] <= 1
 move_0_0_34_10: x[0,1,0,1] + x[0,3,4,0] <= 1
 move_0_0_34_11: x[0,1,1,1] + x[0,3,4,0] <= 1
 move_0_0_34_12: x[0,1,2,1] + x[0,3,4,0] <= 1
 move_0_0_34_13: x[0,1,3,1] + x[0,3,4,0] <= 1
 move_0_0_34_20: x[0,2,0,1] + x[0,3,4,0] <= 1
 move_0_0_34_21: x[0,2,1,1] + x[0,3,4,0] <= 1
 move_0_0_34_22: x[0,2,2,1] + x[0,3,4,0] <= 1
 move_0_0_34_30: x[0,3,0,1] + x[0,3,4,0] <= 1
 move_0_0_34_31: x[0,3,1,1] + x[0,3,4,0] <= 1
 move_0_0_34_40: x[0,3,4,0] + x[0,4,0,1] <= 1
 move_0_0_34_41: x[0,3,4,0] + x[0,4,1,1] <= 1
 move_0_0_34_42: x[0,3,4,0] + x[0,4,2,1] <= 1
 move_0_0_40_00: x[0,0,0,1] + x[0,4,0,0] <= 1
 move_0_0_40_01: x[0,0,1,1] + x[0,4,0,0] <= 1
 move_0_0_40_02: x[0,0,2,1] + x[0,4,0,0] <= 1
 move_0_0_40_03: x[0,0,3,1] + x[0,4,0,0] <= 1
 move_0_0_40_04: x[0,0,4,1] + x[0,4,0,0] <= 1
 move_0_0_40_10: x[0,1,0,1] + x[0,4,0,0] <= 1
 move_0_0_40_11: x[0,1,1,1] + x[0,4,0,0] <= 1
 move_0_0_40_12: x[0,1,2,1] + x[0,4,0,0] <= 1
 move_0_0_40_13: x[0,1,3,1] + x[0,4,0,0] <= 1
 move_0_0_40_14: x[0,1,4,1] + x[0,4,0,0] <= 1
 move_0_0_40_21: x[0,2,1,1] + x[0,4,0,0] <= 1
 move_0_0_40_22: x[0,2,2,1] + x[0,4,0,0] <= 1
 move_0_0_40_23: x[0,2,3,1] + x[0,4,0,0] <= 1
 move_0_0_40_24: x[0,2,4,1] + x[0,4,0,0] <= 1
 move_0_0_40_32: x[0,3,2,1] + x[0,4,0,0] <= 1
 move_0_0_40_33: x[0,3,3,1] + x[0,4,0,0] <= 1
 move_0_0_40_34: x[0,3,4,1] + x[0,4,0,0] <= 1
 move_0_0_40_43: x[0,4,0,0] + x[0,4,3,1] <= 1
 move_0_0_40_44: x[0,4,0,0] + x[0,4,4,1] <= 1
 move_0_0_41_00: x[0,0,0,1] + x[0,4,1,0] <= 1
 move_0_0_41_01: x[0,0,1,1] + x[0,4,1,0] <= 1
 move_0_0_41_02: x[0,0,2,1] + x[0,4,1,0] <= 1
 move_0_0_41_03: x[0,0,3,1] + x[0,4,1,0] <= 1
 move_0_0_41_04: x[0,0,4,1] + x[0,4,1,0] <= 1
 move_0_0_41_10: x[0,1,0,1] + x[0,4,1,0] <= 1
 move_0_0_41_11: x[0,1,1,1] + x[0,4,1,0] <= 1
 move_0_0_41_12: x[0,1,2,1] + x[0,4,1,0] <= 1
 move_0_0_41_13: x[0,1,3,1] + x[0,4,1,0] <= 1
 move_0_0_41_14: x[0,1,4,1] + x[0,4,1,0] <= 1
 move_0_0_41_20: x[0,2,0,1] + x[0,4,1,0] <= 1
 move_0_0_41_22: x[0,2,2,1] + x[0,4,1,0] <= 1
 move_0_0_41_23: x[0,2,3,1] + x[0,4,1,0] <= 1
 move_0_0_41_24: x[0,2,4,1] + x[0,4,1,0] <= 1
 move_0_0_41_33: x[0,3,3,1] + x[0,4,1,0] <= 1
 move_0_0_41_34: x[0,3,4,1] + x[0,4,1,0] <= 1
 move_0_0_41_44: x[0,4,1,0] + x[0,4,4,1] <= 1
 move_0_0_42_00: x[0,0,0,1] + x[0,4,2,0] <= 1
 move_0_0_42_01: x[0,0,1,1] + x[0,4,2,0] <= 1
 move_0_0_42_02: x[0,0,2,1] + x[0,4,2,0] <= 1
 move_0_0_42_03: x[0,0,3,1] + x[0,4,2,0] <= 1
 move_0_0_42_04: x[0,0,4,1] + x[0,4,2,0] <= 1
 move_0_0_42_10: x[0,1,0,1] + x[0,4,2,0] <= 1
 move_0_0_42_11: x[0,1,1,1] + x[0,4,2,0] <= 1
 move_0_0_42_12: x[0,1,2,1] + x[0,4,2,0] <= 1
 move_0_0_42_13: x[0,1,3,1] + x[0,4,2,0] <= 1
 move_0_0_42_14: x[0,1,4,1] + x[0,4,2,0] <= 1
 move_0_0_42_20: x[0,2,0,1] + x[0,4,2,0] <= 1
 move_0_0_42_21: x[0,2,1,1] + x[0,4,2,0] <= 1
 move_0_0_42_23: x[0,2,3,1] + x[0,4,2,0] <= 1
 move_0_0_42_24: x[0,2,4,1] + x[0,4,2,0] <= 1
 move_0_0_42_30: x[0,3,0,1] + x[0,4,2,0] <= 1
 move_0_0_42_34: x[0,3,4,1] + x[0,4,2,0] <= 1
 move_0_0_43_00: x[0,0,0,1] + x[0,4,3,0] <= 1
 move_0_0_43_01: x[0,0,1,1] + x[0,4,3,0] <= 1
 move_0_0_43_02: x[0,0,2,1] + x[0,4,3,0] <= 1
 move_0_0_43_03: x[0,0,3,1] + x[0,4,3,0] <= 1
 move_0_0_43_04: x[0,0,4,1] + x[0,4,3,0] <= 1
 move_0_0_43_10: x[0,1,0,1] + x[0,4,3,0] <= 1
 move_0_0_43_11: x[0,1,1,1] + x[0,4,3,0] <= 1
 move_0_0_43_12: x[0,1,2,1] + x[0,4,3,0] <= 1
 move_0_0_43_13: x[0,1,3,1] + x[0,4,3,0] <= 1
 move_0_0_43_14: x[0,1,4,1] + x[0,4,3,0] <= 1
 move_0_0_43_20: x[0,2,0,1] + x[0,4,3,0] <= 1
 move_0_0_43_21: x[0,2,1,1] + x[0,4,3,0] <= 1
 move_0_0_43_22: x[0,2,2,1] + x[0,4,3,0] <= 1
 move_0_0_43_24: x[0,2,4,1] + x[0,4,3,0] <= 1
 move_0_0_43_30: x[0,3,0,1] + x[0,4,3,0] <= 1
 move_0_0_43_31: x[0,3,1,1] + x[0,4,3,0] <= 1
 move_0_0_43_40: x[0,4,0,1] + x[0,4,3,0] <= 1
 move_0_0_44_00: x[0,0,0,1] + x[0,4,4,0] <= 1
 move_0_0_44_01: x[0,0,1,1] + x[0,4,4,0] <= 1
 move_0_0_44_02: x[0,0,2,1] + x[0,4,4,0] <= 1
 move_0_0_44_03: x[0,0,3,1] + x[0,4,4,0] <= 1
 move_0_0_44_04: x[0,0,4,1] + x[0,4,4,0] <= 1
 move_0_0_44_10: x[0,1,0,1] + x[0,4,4,0] <= 1
 move_0_0_44_11: x[0,1,1,1] + x[0,4,4,0] <= 1
 move_0_0_44_12: x[0,1,2,1] + x[0,4,4,0] <= 1
 move_0_0_44_13: x[0,1,3,1] + x[0,4,4,0] <= 1
 move_0_0_44_14: x[0,1,4,1] + x[0,4,4,0] <= 1
 move_0_0_44_20: x[0,2,0,1] + x[0,4,4,0] <= 1
 move_0_0_44_21: x[0,2,1,1] + x[0,4,4,0] <= 1
 move_0_0_44_22: x[0,2,2,1] + x[0,4,4,0] <= 1
 move_0_0_44_23: x[0,2,3,1] + x[0,4,4,0] <= 1
 move_0_0_44_30: x[0,3,0,1] + x[0,4,4,0] <= 1
 move_0_0_44_31: x[0,3,1,1] + x[0,4,4,0] <= 1
 move_0_0_44_32: x[0,3,2,1] + x[0,4,4,0] <= 1
 move_0_0_44_40: x[0,4,0,1] + x[0,4,4,0] <= 1
 move_0_0_44_41: x[0,4,1,1] + x[0,4,4,0] <= 1
 move_0_1_00_03: x[0,0,0,1] + x[0,0,3,2] <= 1
 move_0_1_00_04: x[0,0,0,1] + x[0,0,4,2] <= 1
 move_0_1_00_12: x[0,0,0,1] + x[0,1,2,2] <= 1
 move_0_1_00_13: x[0,0,0,1] + x[0,1,3,2] <= 1
 move_0_1_00_14: x[0,0,0,1] + x[0,1,4,2] <= 1
 move_0_1_00_21: x[0,0,0,1] + x[0,2,1,2] <= 1
 move_0_1_00_22: x[0,0,0,1] + x[0,2,2,2] <= 1
 move_0_1_00_23: x[0,0,0,1] + x[0,2,3,2] <= 1
 move_0_1_00_24: x[0,0,0,1] + x[0,2,4,2] <= 1
 move_0_1_00_30: x[0,0,0,1] + x[0,3,0,2] <= 1
 move_0_1_00_31: x[0,0,0,1] + x[0,3,1,2] <= 1
 move_0_1_00_32: x[0,0,0,1] + x[0,3,2,2] <= 1
 move_0_1_00_33: x[0,0,0,1] + x[0,3,3,2] <= 1
 move_0_1_00_34: x[0,0,0,1] + x[0,3,4,2] <= 1
 move_0_1_00_40: x[0,0,0,1] + x[0,4,0,2] <= 1
 move_0_1_00_41: x[0,0,0,1] + x[0,4,1,2] <= 1
 move_0_1_00_42: x[0,0,0,1] + x[0,4,2,2] <= 1
 move_0_1_00_43: x[0,0,0,1] + x[0,4,3,2] <= 1
 move_0_1_00_44: x[0,0,0,1] + x[0,4,4,2] <= 1
 move_0_1_01_04: x[0,0,1,1] + x[0,0,4,2] <= 1
 move_0_1_01_13: x[0,0,1,1] + x[0,1,3,2] <= 1
 move_0_1_01_14: x[0,0,1,1] + x[0,1,4,2] <= 1
 move_0_1_01_20: x[0,0,1,1] + x[0,2,0,2] <= 1
 move_0_1_01_22: x[0,0,1,1] + x[0,2,2,2] <= 1
 move_0_1_01_23: x[0,0,1,1] + x[0,2,3,2] <= 1
 move_0_1_01_24: x[0,0,1,1] + x[0,2,4,2] <= 1
 move_0_1_01_30: x[0,0,1,1] + x[0,3,0,2] <= 1
 move_0_1_01_31: x[0,0,1,1] + x[0,3,1,2] <= 1
 move_0_1_01_32: x[0,0,1,1] + x[0,3,2,2] <= 1
 move_0_1_01_33: x[0,0,1,1] + x[0,3,3,2] <= 1
 move_0_1_01_34: x[0,0,1,1] + x[0,3,4,2] <= 1
 move_0_1_01_40: x[0,0,1,1] + x[0,4,0,2] <= 1
 move_0_1_01_41: x[0,0,1,1] + x[0,4,1,2] <= 1
 move_0_1_01_42: x[0,0,1,1] + x[0,4,2,2] <= 1
 move_0_1_01_43: x[0,0,1,1] + x[0,4,3,2] <= 1
 move_0_1_01_44: x[0,0,1,1] + x[0,4,4,2] <= 1
 move_0_1_02_10: x[0,0,2,1] + x[0,1,0,2] <= 1
 move_0_1_02_14: x[0,0,2,1] + x[0,1,4,2] <= 1
 move_0_1_02_20: x[0,0,2,1] + x[0,2,0,2] <= 1
 move_0_1_02_21: x[0,0,2,1] + x[0,2,1,2] <= 1
 move_0_1_02_23: x[0,0,2,1] + x[0,2,3,2] <= 1
 move_0_1_02_24: x[0,0,2,1] + x[0,2,4,2] <= 1
 move_0_1_02_30: x[0,0,2,1] + x[0,3,0,2] <= 1
 move_0_1_02_31: x[0,0,2,1] + x[0,3,1,2] <= 1
 move_0_1_02_32: x[0,0,2,1] + x[0,3,2,2] <= 1
 move_0_1_02_33: x[0,0,2,1] + x[0,3,3,2] <= 1
 move_0_1_02_34: x[0,0,2,1] + x[0,3,4,2] <= 1
 move_0_1_02_40: x[0,0,2,1] + x[0,4,0,2] <= 1
 move_0_1_02_41: x[0,0,2,1] + x[0,4,1,2] <= 1
 move_0_1_02_42: x[0,0,2,1] + x[0,4,2,2] <= 1
 move_0_1_02_43: x[0,0,2,1] + x[0,4,3,2] <= 1
 move_0_1_02_44: x[0,0,2,1] + x[0,4,4,2] <= 1
 move_0_1_03_00: x[0,0,0,2] + x[0,0,3,1] <= 1
 move_0_1_03_10: x[0,0,3,1] + x[0,1,0,2] <= 1
 move_0_1_03_11: x[0,0,3,1] + x[0,1,1,2] <= 1
 move_0_1_03_20: x[0,0,3,1] + x[0,2,0,2] <= 1
 move_0_1_03_21: x[0,0,3,1] + x[0,2,1,2] <= 1
 move_0_1_03_22: x[0,0,3,1] + x[0,2,2,2] <= 1
 move_0_1_03_24: x[0,0,3,1] + x[0,2,4,2] <= 1
 move_0_1_03_30: x[0,0,3,1] + x[0,3,0,2] <= 1
 move_0_1_03_31: x[0,0,3,1] + x[0,3,1,2] <= 1
 move_0_1_03_32: x[0,0,3,1] + x[0,3,2,2] <= 1
 move_0_1_03_33: x[0,0,3,1] + x[0,3,3,2] <= 1
 move_0_1_03_34: x[0,0,3,1] + x[0,3,4,2] <= 1
 move_0_1_03_40: x[0,0,3,1] + x[0,4,0,2] <= 1
 move_0_1_03_41: x[0,0,3,1] + x[0,4,1,2] <= 1
 move_0_1_03_42: x[0,0,3,1] + x[0,4,2,2] <= 1
 move_0_1_03_43: x[0,0,3,1] + x[0,4,3,2] <= 1
 move_0_1_03_44: x[0,0,3,1] + x[0,4,4,2] <= 1
 move_0_1_04_00: x[0,0,0,2] + x[0,0,4,1] <= 1
 move_0_1_04_01: x[0,0,1,2] + x[0,0,4,1] <= 1
 move_0_1_04_10: x[0,0,4,1] + x[0,1,0,2] <= 1
 move_0_1_04_11: x[0,0,4,1] + x[0,1,1,2] <= 1
 move_0_1_04_12: x[0,0,4,1] + x[0,1,2,2] <= 1
 move_0_1_04_20: x[0,0,4,1] + x[0,2,0,2] <= 1
 move_0_1_04_21: x[0,0,4,1] + x[0,2,1,2] <= 1
 move_0_1_04_22: x[0,0,4,1] + x[0,2,2,2] <= 1
 move_0_1_04_23: x[0,0,4,1] + x[0,2,3,2] <= 1
 move_0_1_04_30: x[0,0,4,1] + x[0,3,0,2] <= 1
 move_0_1_04_31: x[0,0,4,1] + x[0,3,1,2] <= 1
 move_0_1_04_32: x[0,0,4,1] + x[0,3,2,2] <= 1
 move_0_1_04_33: x[0,0,4,1] + x[0,3,3,2] <= 1
 move_0_1_04_34: x[0,0,4,1] + x[0,3,4,2] <= 1
 move_0_1_04_40: x[0,0,4,1] + x[0,4,0,2] <= 1
 move_0_1_04_41: x[0,0,4,1] + x[0,4,1,2] <= 1
 move_0_1_04_42: x[0,0,4,1] + x[0,4,2,2] <= 1
 move_0_1_04_43: x[0,0,4,1] + x[0,4,3,2] <= 1
 move_0_1_04_44: x[0,0,4,1] + x[0,4,4,2] <= 1
 move_0_1_10_02: x[0,0,2,2] + x[0,1,0,1] <= 1
 move_0_1_10_03: x[0,0,3,2] + x[0,1,0,1] <= 1
 move_0_1_10_04: x[0,0,4,2] + x[0,1,0,1] <= 1
 move_0_1_10_13: x[0,1,0,1] + x[0,1,3,2] <= 1
 move_0_1_10_14: x[0,1,0,1] + x[0,1,4,2] <= 1
 move_0_1_10_22: x[0,1,0,1] + x[0,2,2,2] <= 1
 move_0_1_10_23: x[0,1,0,1] + x[0,2,3,2] <= 1
 move_0_1_10_24: x[0,1,0,1] + x[0,2,4,2] <= 1
 move_0_1_10_31: x[0,1,0,1] + x[0,3,1,2] <= 1
 move_0_1_10_32: x[0,1,0,1] + x[0,3,2,2] <= 1
 move_0_1_10_33: x[0,1,0,1] + x[0,3,3,2] <= 1
 move_0_1_10_34: x[0,1,0,1] + x[0,3,4,2] <= 1
 move_0_1_10_40: x[0,1,0,1] + x[0,4,0,2] <= 1
 move_0_1_10_41: x[0,1,0,1] + x[0,4,1,2] <= 1
 move_0_1_10_42: x[0,1,0,1] + x[0,4,2,2] <= 1
 move_0_1_10_43: x[0,1,0,1] + x[0,4,3,2] <= 1
 move_0_1_10_44: x[0,1,0,1] + x[0,4,4,2] <= 1
 move_0_1_11_03: x[0,0,3,2] + x[0,1,1,1] <= 1
 move_0_1_11_04: x[0,0,4,2] + x[0,1,1,1] <= 1
 move_0_1_11_14: x[0,1,1,1] + x[0,1,4,2] <= 1
 move_0_1_11_23: x[0,1,1,1] + x[0,2,3,2] <= 1
 move_0_1_11_24: x[0,1,1,1] + x[0,2,4,2] <= 1
 move_0_1_11_30: x[0,1,1,1] + x[0,3,0,2] <= 1
 move_0_1_11_32: x[0,1,1,1] + x[0,3,2,2] <= 1
 move_0_1_11_33: x[0,1,1,1] + x[0,3,3,2] <= 1
 move_0_1_11_34: x[0,1,1,1] + x[0,3,4,2] <= 1
 move_0_1_11_40: x[0,1,1,1] + x[0,4,0,2] <= 1
 move_0_1_11_41: x[0,1,1,1] + x[0,4,1,2] <= 1
 move_0_1_11_42: x[0,1,1,1] + x[0,4,2,2] <= 1
 move_0_1_11_43: x[0,1,1,1] + x[0,4,3,2] <= 1
 move_0_1_11_44: x[0,1,1,1] + x[0,4,4,2] <= 1
 move_0_1_12_00: x[0,0,0,2] + x[0,1,2,1] <= 1
 move_0_1_12_04: x[0,0,4,2] + x[0,1,2,1] <= 1
 move_0_1_12_20: x[0,1,2,1] + x[0,2,0,2] <= 1
 move_0_1_12_24: x[0,1,2,1] + x[0,2,4,2] <= 1
 move_0_1_12_30: x[0,1,2,1] + x[0,3,0,2] <= 1
 move_0_1_12_31: x[0,1,2,1] + x[0,3,1,2] <= 1
 move_0_1_12_33: x[0,1,2,1] + x[0,3,3,2] <= 1
 move_0_1_12_34: x[0,1,2,1] + x[0,3,4,2] <= 1
 move_0_1_12_40: x[0,1,2,1] + x[0,4,0,2] <= 1
 move_0_1_12_41: x[0,1,2,1] + x[0,4,1,2] <= 1
 move_0_1_12_42: x[0,1,2,1] + x[0,4,2,2] <= 1
 move_0_1_12_43: x[0,1,2,1] + x[0,4,3,2] <= 1
 move_0_1_12_44: x[0,1,2,1] + x[0,4,4,2] <= 1
 move_0_1_13_00: x[0,0,0,2] + x[0,1,3,1] <= 1
 move_0_1_13_01: x[0,0,1,2] + x[0,1,3,1] <= 1
 move_0_1_13_10: x[0,1,0,2] + x[0,1,3,1] <= 1
 move_0_1_13_20: x[0,1,3,1] + x[0,2,0,2] <= 1
 move_0_1_13_21: x[0,1,3,1] + x[0,2,1,2] <= 1
 move_0_1_13_30: x[0,1,3,1] + x[0,3,0,2] <= 1
 move_0_1_13_31: x[0,1,3,1] + x[0,3,1,2] <= 1
 move_0_1_13_32: x[0,1,3,1] + x[0,3,2,2] <= 1
 move_0_1_13_34: x[0,1,3,1] + x[0,3,4,2] <= 1
 move_0_1_13_40: x[0,1,3,1] + x[0,4,0,2] <= 1
 move_0_1_13_41: x[0,1,3,1] + x[0,4,1,2] <= 1
 move_0_1_13_42: x[0,1,3,1] + x[0,4,2,2] <= 1
 move_0_1_13_43: x[0,1,3,1] + x[0,4,3,2] <= 1
 move_0_1_13_44: x[0,1,3,1] + x[0,4,4,2] <= 1
 move_0_1_14_00: x[0,0,0,2] + x[0,1,4,1] <= 1
 move_0_1_14_01: x[0,0,1,2] + x[0,1,4,1] <= 1
 move_0_1_14_02: x[0,0,2,2] + x[0,1,4,1] <= 1
 move_0_1_14_10: x[0,1,0,2] + x[0,1,4,1] <= 1
 move_0_1_14_11: x[0,1,1,2] + x[0,1,4,1] <= 1
 move_0_1_14_20: x[0,1,4,1] + x[0,2,0,2] <= 1
 move_0_1_14_21: x[0,1,4,1] + x[0,2,1,2] <= 1
 move_0_1_14_22: x[0,1,4,1] + x[0,2,2,2] <= 1
 move_0_1_14_30: x[0,1,4,1] + x[0,3,0,2] <= 1
 move_0_1_14_31: x[0,1,4,1] + x[0,3,1,2] <= 1
 move_0_1_14_32: x[0,1,4,1] + x[0,3,2,2] <= 1
 move_0_1_14_33: x[0,1,4,1] + x[0,3,3,2] <= 1
 move_0_1_14_40: x[0,1,4,1] + x[0,4,0,2] <= 1
 move_0_1_14_41: x[0,1,4,1] + x[0,4,1,2] <= 1
 move_0_1_14_42: x[0,1,4,1] + x[0,4,2,2] <= 1
 move_0_1_14_43: x[0,1,4,1] + x[0,4,3,2] <= 1
 move_0_1_14_44: x[0,1,4,1] + x[0,4,4,2] <= 1
 move_0_1_20_01: x[0,0,1,2] + x[0,2,0,1] <= 1
 move_0_1_20_02: x[0,0,2,2] + x[0,2,0,1] <= 1
 move_0_1_20_03: x[0,0,3,2] + x[0,2,0,1] <= 1
 move_0_1_20_04: x[0,0,4,2] + x[0,2,0,1] <= 1
 move_0_1_20_12: x[0,1,2,2] + x[0,2,0,1] <= 1
 move_0_1_20_13: x[0,1,3,2] + x[0,2,0,1] <= 1
 move_0_1_20_14: x[0,1,4,2] + x[0,2,0,1] <= 1
 move_0_1_20_23: x[0,2,0,1] + x[0,2,3,2] <= 1
 move_0_1_20_24: x[0,2,0,1] + x[0,2,4,2] <= 1
 move_0_1_20_32: x[0,2,0,1] + x[0,3,2,2] <= 1
 move_0_1_20_33: x[0,2,0,1] + x[0,3,3,2] <= 1
 move_0_1_20_34: x[0,2,0,1] + x[0,3,4,2] <= 1
 move_0_1_20_41: x[0,2,0,1] + x[0,4,1,2] <= 1
 move_0_1_20_42: x[0,2,0,1] + x[0,4,2,2] <= 1
 move_0_1_20_43: x[0,2,0,1] + x[0,4,3,2] <= 1
 move_0_1_20_44: x[0,2,0,1] + x[0,4,4,2] <= 1
 move_0_1_21_00: x[0,0,0,2] + x[0,2,1,1] <= 1
 move_0_1_21_02: x[0,0,2,2] + x[0,2,1,1] <= 1
 move_0_1_21_03: x[0,0,3,2] + x[0,2,1,1] <= 1
 move_0_1_21_04: x[0,0,4,2] + x[0,2,1,1] <= 1
 move_0_1_21_13: x[0,1,3,2] + x[0,2,1,1] <= 1
 move_0_1_21_14: x[0,1,4,2] + x[0,2,1,1] <= 1
 move_0_1_21_24: x[0,2,1,1] + x[0,2,4,2] <= 1
 move_0_1_21_33: x[0,2,1,1] + x[0,3,3,2] <= 1
 move_0_1_21_34: x[0,2,1,1] + x[0,3,4,2] <= 1
 move_0_1_21_40: x[0,2,1,1] + x[0,4,0,2] <= 1
 move_0_1_21_42: x[0,2,1,1] + x[0,4,2,2] <= 1
 move_0_1_21_43: x[0,2,1,1] + x[0,4,3,2] <= 1
 move_0_1_21_44: x[0,2,1,1] + x[0,4,4,2] <= 1
 move_0_1_22_00: x[0,0,0,2] + x[0,2,2,1] <= 1
 move_0_1_22_01: x[0,0,1,2] + x[0,2,2,1] <= 1
 move_0_1_22_03: x[0,0,3,2] + x[0,2,2,1] <= 1
 move_0_1_22_04: x[0,0,4,2] + x[0,2,2,1] <= 1
 move_0_1_22_10: x[0,1,0,2] + x[0,2,2,1] <= 1
 move_0_1_22_14: x[0,1,4,2] + x[0,2,2,1] <= 1
 move_0_1_22_30: x[0,2,2,1] + x[0,3,0,2] <= 1
 move_0_1_22_34: x[0,2,2,1] + x[0,3,4,2] <= 1
 move_0_1_22_40: x[0,2,2,1] + x[0,4,0,2] <= 1
 move_0_1_22_41: x[0,2,2,1] + x[0,4,1,2] <= 1
 move_0_1_22_43: x[0,2,2,1] + x[0,4,3,2] <= 1
 move_0_1_22_44: x[0,2,2,1] + x[0,4,4,2] <= 1
 move_0_1_23_00: x[0,0,0,2] + x[0,2,3,1] <= 1
 move_0_1_23_01: x[0,0,1,2] + x[0,2,3,1] <= 1
 move_0_1_23_02: x[0,0,2,2] + x[0,2,3,1] <= 1
 move_0_1_23_04: x[0,0,4,2] + x[0,2,3,1] <= 1
 move_0_1_23_10: x[0,1,0,2] + x[0,2,3,1] <= 1
 move_0_1_23_11: x[0,1,1,2] + x[0,2,3,1] <= 1
 move_0_1_23_20: x[0,2,0,2] + x[0,2,3,1] <= 1
 move_0_1_23_30: x[0,2,3,1] + x[0,3,0,2] <= 1
 move_0_1_23_31: x[0,2,3,1] + x[0,3,1,2] <= 1
 move_0_1_23_40: x[0,2,3,1] + x[0,4,0,2] <= 1
 move_0_1_23_41: x[0,2,3,1] + x[0,4,1,2] <= 1
 move_0_1_23_42: x[0,2,3,1] + x[0,4,2,2] <= 1
 move_0_1_23_44: x[0,2,3,1] + x[0,4,4,2] <= 1
 move_0_1_24_00: x[0,0,0,2] + x[0,2,4,1] <= 1
 move_0_1_24_01: x[0,0,1,2] + x[0,2,4,1] <= 1
 move_0_1_24_02: x[0,0,2,2] + x[0,2,4,1] <= 1
 move_0_1_24_03: x[0,0,3,2] + x[0,2,4,1] <= 1
 move_0_1_24_10: x[0,1,0,2] + x[0,2,4,1] <= 1
 move_0_1_24_11: x[0,1,1,2] + x[0,2,4,1] <= 1
 move_0_1_24_12: x[0,1,2,2] + x[0,2,4,1] <= 1
 move_0_1_24_20: x[0,2,0,2] + x[0,2,4,1] <= 1
 move_0_1_24_21: x[0,2,1,2] + x[0,2,4,1] <= 1
 move_0_1_24_30: x[0,2,4,1] + x[0,3,0,2] <= 1
 move_0_1_24_31: x[0,2,4,1] + x[0,3,1,2] <= 1
 move_0_1_24_32: x[0,2,4,1] + x[0,3,2,2] <= 1
 move_0_1_24_40: x[0,2,4,1] + x[0,4,0,2] <= 1
 move_0_1_24_41: x[0,2,4,1] + x[0,4,1,2] <= 1
 move_0_1_24_42: x[0,2,4,1] + x[0,4,2,2] <= 1
 move_0_1_24_43: x[0,2,4,1] + x[0,4,3,2] <= 1
 move_0_1_30_00: x[0,0,0,2] + x[0,3,0,1] <= 1
 move_0_1_30_01: x[0,0,1,2] + x[0,3,0,1] <= 1
 move_0_1_30_02: x[0,0,2,2] + x[0,3,0,1] <= 1
 move_0_1_30_03: x[0,0,3,2] + x[0,3,0,1] <= 1
 move_0_1_30_04: x[0,0,4,2] + x[0,3,0,1] <= 1
 move_0_1_30_11: x[0,1,1,2] + x[0,3,0,1] <= 1
 move_0_1_30_12: x[0,1,2,2] + x[0,3,0,1] <= 1
 move_0_1_30_13: x[0,1,3,2] + x[0,3,0,1] <= 1
 move_0_1_30_14: x[0,1,4,2] + x[0,3,0,1] <= 1
 move_0_1_30_22: x[0,2,2,2] + x[0,3,0,1] <= 1
 move_0_1_30_23: x[0,2,3,2] + x[0,3,0,1] <= 1
 move_0_1_30_24: x[0,2,4,2] + x[0,3,0,1] <= 1
 move_0_1_30_33: x[0,3,0,1] + x[0,3,3,2] <= 1
 move_0_1_30_34: x[0,3,0,1] + x[0,3,4,2] <= 1
 move_0_1_30_42: x[0,3,0,1] + x[0,4,2,2] <= 1
 move_0_1_30_43: x[0,3,0,1] + x[0,4,3,2] <= 1
 move_0_1_30_44: x[0,3,0,1] + x[0,4,4,2] <= 1
 move_0_1_31_00: x[0,0,0,2] + x[0,3,1,1] <= 1
 move_0_1_31_01: x[0,0,1,2] + x[0,3,1,1] <= 1
 move_0_1_31_02: x[0,0,2,2] + x[0,3,1,1] <= 1
 move_0_1_31_03: x[0,0,3,2] + x[0,3,1,1] <= 1
 move_0_1_31_04: x[0,0,4,2] + x[0,3,1,1] <= 1
 move_0_1_31_10: x[0,1,0,2] + x[0,3,1,1] <= 1
 move_0_1_31_12: x[0,1,2,2] + x[0,3,1,1] <= 1
 move_0_1_31_13: x[0,1,3,2] + x[0,3,1,1] <= 1
 move_0_1_31_14: x[0,1,4,2] + x[0,3,1,1] <= 1
 move_0_1_31_23: x[0,2,3,2] + x[0,3,1,1] <= 1
 move_0_1_31_24: x[0,2,4,2] + x[0,3,1,1] <= 1
 move_0_1_31_34: x[0,3,1,1] + x[0,3,4,2] <= 1
 move_0_1_31_43: x[0,3,1,1] + x[0,4,3,2] <= 1
 move_0_1_31_44: x[0,3,1,1] + x[0,4,4,2] <= 1
 move_0_1_32_00: x[0,0,0,2] + x[0,3,2,1] <= 1
 move_0_1_32_01: x[0,0,1,2] + x[0,3,2,1] <= 1
 move_0_1_32_02: x[0,0,2,2] + x[0,3,2,1] <= 1
 move_0_1_32_03: x[0,0,3,2] + x[0,3,2,1] <= 1
 move_0_1_32_04: x[0,0,4,2] + x[0,3,2,1] <= 1
 move_0_1_32_10: x[0,1,0,2] + x[0,3,2,1] <= 1
 move_0_1_32_11: x[0,1,1,2] + x[0,3,2,1] <= 1
 move_0_1_32_13: x[0,1,3,2] + x[0,3,2,1] <= 1
 move_0_1_32_14: x[0,1,4,2] + x[0,3,2,1] <= 1
 move_0_1_32_20: x[0,2,0,2] + x[0,3,2,1] <= 1
 move_0_1_32_24: x[0,2,4,2] + x[0,3,2,1] <= 1
 move_0_1_32_40: x[0,3,2,1] + x[0,4,0,2] <= 1
 move_0_1_32_44: x[0,3,2,1] + x[0,4,4,2] <= 1
 move_0_1_33_00: x[0,0,0,2] + x[0,3,3,1] <= 1
 move_0_1_33_01: x[0,0,1,2] + x[0,3,3,1] <= 1
 move_0_1_33_02: x[0,0,2,2] + x[0,3,3,1] <= 1
 move_0_1_33_03: x[0,0,3,2] + x[0,3,3,1] <= 1
 move_0_1_33_04: x[0,0,4,2] + x[0,3,3,1] <= 1
 move_0_1_33_10: x[0,1,0,2] + x[0,3,3,1] <= 1
 move_0_1_33_11: x[0,1,1,2] + x[0,3,3,1] <= 1
 move_0_1_33_12: x[0,1,2,2] + x[0,3,3,1] <= 1
 move_0_1_33_14: x[0,1,4,2] + x[0,3,3,1] <= 1
 move_0_1_33_20: x[0,2,0,2] + x[0,3,3,1] <= 1
 move_0_1_33_21: x[0,2,1,2] + x[0,3,3,1] <= 1
 move_0_1_33_30: x[0,3,0,2] + x[0,3,3,1] <= 1
 move_0_1_33_40: x[0,3,3,1] + x[0,4,0,2] <= 1
 move_0_1_33_41: x[0,3,3,1] + x[0,4,1,2] <= 1
 move_0_1_34_00: x[0,0,0,2] + x[0,3,4,1] <= 1
 move_0_1_34_01: x[0,0,1,2] + x[0,3,4,1] <= 1
 move_0_1_34_02: x[0,0,2,2] + x[0,3,4,1] <= 1
 move_0_1_34_03: x[0,0,3,2] + x[0,3,4,1] <= 1
 move_0_1_34_04: x[0,0,4,2] + x[0,3,4,1] <= 1
 move_0_1_34_10: x[0,1,0,2] + x[0,3,4,1] <= 1
 move_0_1_34_11: x[0,1,1,2] + x[0,3,4,1] <= 1
 move_0_1_34_12: x[0,1,2,2] + x[0,3,4,1] <= 1
 move_0_1_34_13: x[0,1,3,2] + x[0,3,4,1] <= 1
 move_0_1_34_20: x[0,2,0,2] + x[0,3,4,1] <= 1
 move_0_1_34_21: x[0,2,1,2] + x[0,3,4,1] <= 1
 move_0_1_34_22: x[0,2,2,2] + x[0,3,4,1] <= 1
 move_0_1_34_30: x[0,3,0,2] + x[0,3,4,1] <= 1
 move_0_1_34_31: x[0,3,1,2] + x[0,3,4,1] <= 1
 move_0_1_34_40: x[0,3,4,1] + x[0,4,0,2] <= 1
 move_0_1_34_41: x[0,3,4,1] + x[0,4,1,2] <= 1
 move_0_1_34_42: x[0,3,4,1] + x[0,4,2,2] <= 1
 move_0_1_40_00: x[0,0,0,2] + x[0,4,0,1] <= 1
 move_0_1_40_01: x[0,0,1,2] + x[0,4,0,1] <= 1
 move_0_1_40_02: x[0,0,2,2] + x[0,4,0,1] <= 1
 move_0_1_40_03: x[0,0,3,2] + x[0,4,0,1] <= 1
 move_0_1_40_04: x[0,0,4,2] + x[0,4,0,1] <= 1
 move_0_1_40_10: x[0,1,0,2] + x[0,4,0,1] <= 1
 move_0_1_40_11: x[0,1,1,2] + x[0,4,0,1] <= 1
 move_0_1_40_12: x[0,1,2,2] + x[0,4,0,1] <= 1
 move_0_1_40_13: x[0,1,3,2] + x[0,4,0,1] <= 1
 move_0_1_40_14: x[0,1,4,2] + x[0,4,0,1] <= 1
 move_0_1_40_21: x[0,2,1,2] + x[0,4,0,1] <= 1
 move_0_1_40_22: x[0,2,2,2] + x[0,4,0,1] <= 1
 move_0_1_40_23: x[0,2,3,2] + x[0,4,0,1] <= 1
 move_0_1_40_24: x[0,2,4,2] + x[0,4,0,1] <= 1
 move_0_1_40_32: x[0,3,2,2] + x[0,4,0,1] <= 1
 move_0_1_40_33: x[0,3,3,2] + x[0,4,0,1] <= 1
 move_0_1_40_34: x[0,3,4,2] + x[0,4,0,1] <= 1
 move_0_1_40_43: x[0,4,0,1] + x[0,4,3,2] <= 1
 move_0_1_40_44: x[0,4,0,1] + x[0,4,4,2] <= 1
 move_0_1_41_00: x[0,0,0,2] + x[0,4,1,1] <= 1
 move_0_1_41_01: x[0,0,1,2] + x[0,4,1,1] <= 1
 move_0_1_41_02: x[0,0,2,2] + x[0,4,1,1] <= 1
 move_0_1_41_03: x[0,0,3,2] + x[0,4,1,1] <= 1
 move_0_1_41_04: x[0,0,4,2] + x[0,4,1,1] <= 1
 move_0_1_41_10: x[0,1,0,2] + x[0,4,1,1] <= 1
 move_0_1_41_11: x[0,1,1,2] + x[0,4,1,1] <= 1
 move_0_1_41_12: x[0,1,2,2] + x[0,4,1,1] <= 1
 move_0_1_41_13: x[0,1,3,2] + x[0,4,1,1] <= 1
 move_0_1_41_14: x[0,1,4,2] + x[0,4,1,1] <= 1
 move_0_1_41_20: x[0,2,0,2] + x[0,4,1,1] <= 1
 move_0_1_41_22: x[0,2,2,2] + x[0,4,1,1] <= 1
 move_0_1_41_23: x[0,2,3,2] + x[0,4,1,1] <= 1
 move_0_1_41_24: x[0,2,4,2] + x[0,4,1,1] <= 1
 move_0_1_41_33: x[0,3,3,2] + x[0,4,1,1] <= 1
 move_0_1_41_34: x[0,3,4,2] + x[0,4,1,1] <= 1
 move_0_1_41_44: x[0,4,1,1] + x[0,4,4,2] <= 1
 move_0_1_42_00: x[0,0,0,2] + x[0,4,2,1] <= 1
 move_0_1_42_01: x[0,0,1,2] + x[0,4,2,1] <= 1
 move_0_1_42_02: x[0,0,2,2] + x[0,4,2,1] <= 1
 move_0_1_42_03: x[0,0,3,2] + x[0,4,2,1] <= 1
 move_0_1_42_04: x[0,0,4,2] + x[0,4,2,1] <= 1
 move_0_1_42_10: x[0,1,0,2] + x[0,4,2,1] <= 1
 move_0_1_42_11: x[0,1,1,2] + x[0,4,2,1] <= 1
 move_0_1_42_12: x[0,1,2,2] + x[0,4,2,1] <= 1
 move_0_1_42_13: x[0,1,3,2] + x[0,4,2,1] <= 1
 move_0_1_42_14: x[0,1,4,2] + x[0,4,2,1] <= 1
 move_0_1_42_20: x[0,2,0,2] + x[0,4,2,1] <= 1
 move_0_1_42_21: x[0,2,1,2] + x[0,4,2,1] <= 1
 move_0_1_42_23: x[0,2,3,2] + x[0,4,2,1] <= 1
 move_0_1_42_24: x[0,2,4,2] + x[0,4,2,1] <= 1
 move_0_1_42_30: x[0,3,0,2] + x[0,4,2,1] <= 1
 move_0_1_42_34: x[0,3,4,2] + x[0,4,2,1] <= 1
 move_0_1_43_00: x[0,0,0,2] + x[0,4,3,1] <= 1
 move_0_1_43_01: x[0,0,1,2] + x[0,4,3,1] <= 1
 move_0_1_43_02: x[0,0,2,2] + x[0,4,3,1] <= 1
 move_0_1_43_03: x[0,0,3,2] + x[0,4,3,1] <= 1
 move_0_1_43_04: x[0,0,4,2] + x[0,4,3,1] <= 1
 move_0_1_43_10: x[0,1,0,2] + x[0,4,3,1] <= 1
 move_0_1_43_11: x[0,1,1,2] + x[0,4,3,1] <= 1
 move_0_1_43_12: x[0,1,2,2] + x[0,4,3,1] <= 1
 move_0_1_43_13: x[0,1,3,2] + x[0,4,3,1] <= 1
 move_0_1_43_14: x[0,1,4,2] + x[0,4,3,1] <= 1
 move_0_1_43_20: x[0,2,0,2] + x[0,4,3,1] <= 1
 move_0_1_43_21: x[0,2,1,2] + x[0,4,3,1] <= 1
 move_0_1_43_22: x[0,2,2,2] + x[0,4,3,1] <= 1
 move_0_1_43_24: x[0,2,4,2] + x[0,4,3,1] <= 1
 move_0_1_43_30: x[0,3,0,2] + x[0,4,3,1] <= 1
 move_0_1_43_31: x[0,3,1,2] + x[0,4,3,1] <= 1
 move_0_1_43_40: x[0,4,0,2] + x[0,4,3,1] <= 1
 move_0_1_44_00: x[0,0,0,2] + x[0,4,4,1] <= 1
 move_0_1_44_01: x[0,0,1,2] + x[0,4,4,1] <= 1
 move_0_1_44_02: x[0,0,2,2] + x[0,4,4,1] <= 1
 move_0_1_44_03: x[0,0,3,2] + x[0,4,4,1] <= 1
 move_0_1_44_04: x[0,0,4,2] + x[0,4,4,1] <= 1
 move_0_1_44_10: x[0,1,0,2] + x[0,4,4,1] <= 1
 move_0_1_44_11: x[0,1,1,2] + x[0,4,4,1] <= 1
 move_0_1_44_12: x[0,1,2,2] + x[0,4,4,1] <= 1
 move_0_1_44_13: x[0,1,3,2] + x[0,4,4,1] <= 1
 move_0_1_44_14: x[0,1,4,2] + x[0,4,4,1] <= 1
 move_0_1_44_20: x[0,2,0,2] + x[0,4,4,1] <= 1
 move_0_1_44_21: x[0,2,1,2] + x[0,4,4,1] <= 1
 move_0_1_44_22: x[0,2,2,2] + x[0,4,4,1] <= 1
 move_0_1_44_23: x[0,2,3,2] + x[0,4,4,1] <= 1
 move_0_1_44_30: x[0,3,0,2] + x[0,4,4,1] <= 1
 move_0_1_44_31: x[0,3,1,2] + x[0,4,4,1] <= 1
 move_0_1_44_32: x[0,3,2,2] + x[0,4,4,1] <= 1
 move_0_1_44_40: x[0,4,0,2] + x[0,4,4,1] <= 1
 move_0_1_44_41: x[0,4,1,2] + x[0,4,4,1] <= 1
 move_0_2_00_03: x[0,0,0,2] + x[0,0,3,3] <= 1
 move_0_2_00_04: x[0,0,0,2] + x[0,0,4,3] <= 1
 move_0_2_00_12: x[0,0,0,2] + x[0,1,2,3] <= 1
 move_0_2_00_13: x[0,0,0,2] + x[0,1,3,3] <= 1
 move_0_2_00_14: x[0,0,0,2] + x[0,1,4,3] <= 1
 move_0_2_00_21: x[0,0,0,2] + x[0,2,1,3] <= 1
 move_0_2_00_22: x[0,0,0,2] + x[0,2,2,3] <= 1
 move_0_2_00_23: x[0,0,0,2] + x[0,2,3,3] <= 1
 move_0_2_00_24: x[0,0,0,2] + x[0,2,4,3] <= 1
 move_0_2_00_30: x[0,0,0,2] + x[0,3,0,3] <= 1
 move_0_2_00_31: x[0,0,0,2] + x[0,3,1,3] <= 1
 move_0_2_00_32: x[0,0,0,2] + x[0,3,2,3] <= 1
 move_0_2_00_33: x[0,0,0,2] + x[0,3,3,3] <= 1
 move_0_2_00_34: x[0,0,0,2] + x[0,3,4,3] <= 1
 move_0_2_00_40: x[0,0,0,2] + x[0,4,0,3] <= 1
 move_0_2_00_41: x[0,0,0,2] + x[0,4,1,3] <= 1
 move_0_2_00_42: x[0,0,0,2] + x[0,4,2,3] <= 1
 move_0_2_00_43: x[0,0,0,2] + x[0,4,3,3] <= 1
 move_0_2_00_44: x[0,0,0,2] + x[0,4,4,3] <= 1
 move_0_2_01_04: x[0,0,1,2] + x[0,0,4,3] <= 1
 move_0_2_01_13: x[0,0,1,2] + x[0,1,3,3] <= 1
 move_0_2_01_14: x[0,0,1,2] + x[0,1,4,3] <= 1
 move_0_2_01_20: x[0,0,1,2] + x[0,2,0,3] <= 1
 move_0_2_01_22: x[0,0,1,2] + x[0,2,2,3] <= 1
 move_0_2_01_23: x[0,0,1,2] + x[0,2,3,3] <= 1
 move_0_2_01_24: x[0,0,1,2] + x[0,2,4,3] <= 1
 move_0_2_01_30: x[0,0,1,2] + x[0,3,0,3] <= 1
 move_0_2_01_31: x[0,0,1,2] + x[0,3,1,3] <= 1
 move_0_2_01_32: x[0,0,1,2] + x[0,3,2,3] <= 1
 move_0_2_01_33: x[0,0,1,2] + x[0,3,3,3] <= 1
 move_0_2_01_34: x[0,0,1,2] + x[0,3,4,3] <= 1
 move_0_2_01_40: x[0,0,1,2] + x[0,4,0,3] <= 1
 move_0_2_01_41: x[0,0,1,2] + x[0,4,1,3] <= 1
 move_0_2_01_42: x[0,0,1,2] + x[0,4,2,3] <= 1
 move_0_2_01_43: x[0,0,1,2] + x[0,4,3,3] <= 1
 move_0_2_01_44: x[0,0,1,2] + x[0,4,4,3] <= 1
 move_0_2_02_10: x[0,0,2,2] + x[0,1,0,3] <= 1
 move_0_2_02_14: x[0,0,2,2] + x[0,1,4,3] <= 1
 move_0_2_02_20: x[0,0,2,2] + x[0,2,0,3] <= 1
 move_0_2_02_21: x[0,0,2,2] + x[0,2,1,3] <= 1
 move_0_2_02_23: x[0,0,2,2] + x[0,2,3,3] <= 1
 move_0_2_02_24: x[0,0,2,2] + x[0,2,4,3] <= 1
 move_0_2_02_30: x[0,0,2,2] + x[0,3,0,3] <= 1
 move_0_2_02_31: x[0,0,2,2] + x[0,3,1,3] <= 1
 move_0_2_02_32: x[0,0,2,2] + x[0,3,2,3] <= 1
 move_0_2_02_33: x[0,0,2,2] + x[0,3,3,3] <= 1
 move_0_2_02_34: x[0,0,2,2] + x[0,3,4,3] <= 1
 move_0_2_02_40: x[0,0,2,2] + x[0,4,0,3] <= 1
 move_0_2_02_41: x[0,0,2,2] + x[0,4,1,3] <= 1
 move_0_2_02_42: x[0,0,2,2] + x[0,4,2,3] <= 1
 move_0_2_02_43: x[0,0,2,2] + x[0,4,3,3] <= 1
 move_0_2_02_44: x[0,0,2,2] + x[0,4,4,3] <= 1
 move_0_2_03_00: x[0,0,0,3] + x[0,0,3,2] <= 1
 move_0_2_03_10: x[0,0,3,2] + x[0,1,0,3] <= 1
 move_0_2_03_11: x[0,0,3,2] + x[0,1,1,3] <= 1
 move_0_2_03_20: x[0,0,3,2] + x[0,2,0,3] <= 1
 move_0_2_03_21: x[0,0,3,2] + x[0,2,1,3] <= 1
 move_0_2_03_22: x[0,0,3,2] + x[0,2,2,3] <= 1
 move_0_2_03_24: x[0,0,3,2] + x[0,2,4,3] <= 1
 move_0_2_03_30: x[0,0,3,2] + x[0,3,0,3] <= 1
 move_0_2_03_31: x[0,0,3,2] + x[0,3,1,3] <= 1
 move_0_2_03_32: x[0,0,3,2] + x[0,3,2,3] <= 1
 move_0_2_03_33: x[0,0,3,2] + x[0,3,3,3] <= 1
 move_0_2_03_34: x[0,0,3,2] + x[0,3,4,3] <= 1
 move_0_2_03_40: x[0,0,3,2] + x[0,4,0,3] <= 1
 move_0_2_03_41: x[0,0,3,2] + x[0,4,1,3] <= 1
 move_0_2_03_42: x[0,0,3,2] + x[0,4,2,3] <= 1
 move_0_2_03_43: x[0,0,3,2] + x[0,4,3,3] <= 1
 move_0_2_03_44: x[0,0,3,2] + x[0,4,4,3] <= 1
 move_0_2_04_00: x[0,0,0,3] + x[0,0,4,2] <= 1
 move_0_2_04_01: x[0,0,1,3] + x[0,0,4,2] <= 1
 move_0_2_04_10: x[0,0,4,2] + x[0,1,0,3] <= 1
 move_0_2_04_11: x[0,0,4,2] + x[0,1,1,3] <= 1
 move_0_2_04_12: x[0,0,4,2] + x[0,1,2,3] <= 1
 move_0_2_04_20: x[0,0,4,2] + x[0,2,0,3] <= 1
 move_0_2_04_21: x[0,0,4,2] + x[0,2,1,3] <= 1
 move_0_2_04_22: x[0,0,4,2] + x[0,2,2,3] <= 1
 move_0_2_04_23: x[0,0,4,2] + x[0,2,3,3] <= 1
 move_0_2_04_30: x[0,0,4,2] + x[0,3,0,3] <= 1
 move_0_2_04_31: x[0,0,4,2] + x[0,3,1,3] <= 1
 move_0_2_04_32: x[0,0,4,2] + x[0,3,2,3] <= 1
 move_0_2_04_33: x[0,0,4,2] + x[0,3,3,3] <= 1
 move_0_2_04_34: x[0,0,4,2] + x[0,3,4,3] <= 1
 move_0_2_04_40: x[0,0,4,2] + x[0,4,0,3] <= 1
 move_0_2_04_41: x[0,0,4,2] + x[0,4,1,3] <= 1
 move_0_2_04_42: x[0,0,4,2] + x[0,4,2,3] <= 1
 move_0_2_04_43: x[0,0,4,2] + x[0,4,3,3] <= 1
 move_0_2_04_44: x[0,0,4,2] + x[0,4,4,3] <= 1
 move_0_2_10_02: x[0,0,2,3] + x[0,1,0,2] <= 1
 move_0_2_10_03: x[0,0,3,3] + x[0,1,0,2] <= 1
 move_0_2_10_04: x[0,0,4,3] + x[0,1,0,2] <= 1
 move_0_2_10_13: x[0,1,0,2] + x[0,1,3,3] <= 1
 move_0_2_10_14: x[0,1,0,2] + x[0,1,4,3] <= 1
 move_0_2_10_22: x[0,1,0,2] + x[0,2,2,3] <= 1
 move_0_2_10_23: x[0,1,0,2] + x[0,2,3,3] <= 1
 move_0_2_10_24: x[0,1,0,2] + x[0,2,4,3] <= 1
 move_0_2_10_31: x[0,1,0,2] + x[0,3,1,3] <= 1
 move_0_2_10_32: x[0,1,0,2] + x[0,3,2,3] <= 1
 move_0_2_10_33: x[0,1,0,2] + x[0,3,3,3] <= 1
 move_0_2_10_34: x[0,1,0,2] + x[0,3,4,3] <= 1
 move_0_2_10_40: x[0,1,0,2] + x[0,4,0,3] <= 1
 move_0_2_10_41: x[0,1,0,2] + x[0,4,1,3] <= 1
 move_0_2_10_42: x[0,1,0,2] + x[0,4,2,3] <= 1
 move_0_2_10_43: x[0,1,0,2] + x[0,4,3,3] <= 1
 move_0_2_10_44: x[0,1,0,2] + x[0,4,4,3] <= 1
 move_0_2_11_03: x[0,0,3,3] + x[0,1,1,2] <= 1
 move_0_2_11_04: x[0,0,4,3] + x[0,1,1,2] <= 1
 move_0_2_11_14: x[0,1,1,2] + x[0,1,4,3] <= 1
 move_0_2_11_23: x[0,1,1,2] + x[0,2,3,3] <= 1
 move_0_2_11_24: x[0,1,1,2] + x[0,2,4,3] <= 1
 move_0_2_11_30: x[0,1,1,2] + x[0,3,0,3] <= 1
 move_0_2_11_32: x[0,1,1,2] + x[0,3,2,3] <= 1
 move_0_2_11_33: x[0,1,1,2] + x[0,3,3,3] <= 1
 move_0_2_11_34: x[0,1,1,2] + x[0,3,4,3] <= 1
 move_0_2_11_40: x[0,1,1,2] + x[0,4,0,3] <= 1
 move_0_2_11_41: x[0,1,1,2] + x[0,4,1,3] <= 1
 move_0_2_11_42: x[0,1,1,2] + x[0,4,2,3] <= 1
 move_0_2_11_43: x[0,1,1,2] + x[0,4,3,3] <= 1
 move_0_2_11_44: x[0,1,1,2] + x[0,4,4,3] <= 1
 move_0_2_12_00: x[0,0,0,3] + x[0,1,2,2] <= 1
 move_0_2_12_04: x[0,0,4,3] + x[0,1,2,2] <= 1
 move_0_2_12_20: x[0,1,2,2] + x[0,2,0,3] <= 1
 move_0_2_12_24: x[0,1,2,2] + x[0,2,4,3] <= 1
 move_0_2_12_30: x[0,1,2,2] + x[0,3,0,3] <= 1
 move_0_2_12_31: x[0,1,2,2] + x[0,3,1,3] <= 1
 move_0_2_12_33: x[0,1,2,2] + x[0,3,3,3] <= 1
 move_0_2_12_34: x[0,1,2,2] + x[0,3,4,3] <= 1
 move_0_2_12_40: x[0,1,2,2] + x[0,4,0,3] <= 1
 move_0_2_12_41: x[0,1,2,2] + x[0,4,1,3] <= 1
 move_0_2_12_42: x[0,1,2,2] + x[0,4,2,3] <= 1
 move_0_2_12_43: x[0,1,2,2] + x[0,4,3,3] <= 1
 move_0_2_12_44: x[0,1,2,2] + x[0,4,4,3] <= 1
 move_0_2_13_00: x[0,0,0,3] + x[0,1,3,2] <= 1
 move_0_2_13_01: x[0,0,1,3] + x[0,1,3,2] <= 1
 move_0_2_13_10: x[0,1,0,3] + x[0,1,3,2] <= 1
 move_0_2_13_20: x[0,1,3,2] + x[0,2,0,3] <= 1
 move_0_2_13_21: x[0,1,3,2] + x[0,2,1,3] <= 1
 move_0_2_13_30: x[0,1,3,2] + x[0,3,0,3] <= 1
 move_0_2_13_31: x[0,1,3,2] + x[0,3,1,3] <= 1
 move_0_2_13_32: x[0,1,3,2] + x[0,3,2,3] <= 1
 move_0_2_13_34: x[0,1,3,2] + x[0,3,4,3] <= 1
 move_0_2_13_40: x[0,1,3,2] + x[0,4,0,3] <= 1
 move_0_2_13_41: x[0,1,3,2] + x[0,4,1,3] <= 1
 move_0_2_13_42: x[0,1,3,2] + x[0,4,2,3] <= 1
 move_0_2_13_43: x[0,1,3,2] + x[0,4,3,3] <= 1
 move_0_2_13_44: x[0,1,3,2] + x[0,4,4,3] <= 1
 move_0_2_14_00: x[0,0,0,3] + x[0,1,4,2] <= 1
 move_0_2_14_01: x[0,0,1,3] + x[0,1,4,2] <= 1
 move_0_2_14_02: x[0,0,2,3] + x[0,1,4,2] <= 1
 move_0_2_14_10: x[0,1,0,3] + x[0,1,4,2] <= 1
 move_0_2_14_11: x[0,1,1,3] + x[0,1,4,2] <= 1
 move_0_2_14_20: x[0,1,4,2] + x[0,2,0,3] <= 1
 move_0_2_14_21: x[0,1,4,2] + x[0,2,1,3] <= 1
 move_0_2_14_22: x[0,1,4,2] + x[0,2,2,3] <= 1
 move_0_2_14_30: x[0,1,4,2] + x[0,3,0,3] <= 1
 move_0_2_14_31: x[0,1,4,2] + x[0,3,1,3] <= 1
 move_0_2_14_32: x[0,1,4,2] + x[0,3,2,3] <= 1
 move_0_2_14_33: x[0,1,4,2] + x[0,3,3,3] <= 1
 move_0_2_14_40: x[0,1,4,2] + x[0,4,0,3] <= 1
 move_0_2_14_41: x[0,1,4,2] + x[0,4,1,3] <= 1
 move_0_2_14_42: x[0,1,4,2] + x[0,4,2,3] <= 1
 move_0_2_14_43: x[0,1,4,2] + x[0,4,3,3] <= 1
 move_0_2_14_44: x[0,1,4,2] + x[0,4,4,3] <= 1
 move_0_2_20_01: x[0,0,1,3] + x[0,2,0,2] <= 1
 move_0_2_20_02: x[0,0,2,3] + x[0,2,0,2] <= 1
 move_0_2_20_03: x[0,0,3,3] + x[0,2,0,2] <= 1
 move_0_2_20_04: x[0,0,4,3] + x[0,2,0,2] <= 1
 move_0_2_20_12: x[0,1,2,3] + x[0,2,0,2] <= 1
 move_0_2_20_13: x[0,1,3,3] + x[0,2,0,2] <= 1
 move_0_2_20_14: x[0,1,4,3] + x[0,2,0,2] <= 1
 move_0_2_20_23: x[0,2,0,2] + x[0,2,3,3] <= 1
 move_0_2_20_24: x[0,2,0,2] + x[0,2,4,3] <= 1
 move_0_2_20_32: x[0,2,0,2] + x[0,3,2,3] <= 1
 move_0_2_20_33: x[0,2,0,2] + x[0,3,3,3] <= 1
 move_0_2_20_34: x[0,2,0,2] + x[0,3,4,3] <= 1
 move_0_2_20_41: x[0,2,0,2] + x[0,4,1,3] <= 1
 move_0_2_20_42: x[0,2,0,2] + x[0,4,2,3] <= 1
 move_0_2_20_43: x[0,2,0,2] + x[0,4,3,3] <= 1
 move_0_2_20_44: x[0,2,0,2] + x[0,4,4,3] <= 1
 move_0_2_21_00: x[0,0,0,3] + x[0,2,1,2] <= 1
 move_0_2_21_02: x[0,0,2,3] + x[0,2,1,2] <= 1
 move_0_2_21_03: x[0,0,3,3] + x[0,2,1,2] <= 1
 move_0_2_21_04: x[0,0,4,3] + x[0,2,1,2] <= 1
 move_0_2_21_13: x[0,1,3,3] + x[0,2,1,2] <= 1
 move_0_2_21_14: x[0,1,4,3] + x[0,2,1,2] <= 1
 move_0_2_21_24: x[0,2,1,2] + x[0,2,4,3] <= 1
 move_0_2_21_33: x[0,2,1,2] + x[0,3,3,3] <= 1
 move_0_2_21_34: x[0,2,1,2] + x[0,3,4,3] <= 1
 move_0_2_21_40: x[0,2,1,2] + x[0,4,0,3] <= 1
 move_0_2_21_42: x[0,2,1,2] + x[0,4,2,3] <= 1
 move_0_2_21_43: x[0,2,1,2] + x[0,4,3,3] <= 1
 move_0_2_21_44: x[0,2,1,2] + x[0,4,4,3] <= 1
 move_0_2_22_00: x[0,0,0,3] + x[0,2,2,2] <= 1
 move_0_2_22_01: x[0,0,1,3] + x[0,2,2,2] <= 1
 move_0_2_22_03: x[0,0,3,3] + x[0,2,2,2] <= 1
 move_0_2_22_04: x[0,0,4,3] + x[0,2,2,2] <= 1
 move_0_2_22_10: x[0,1,0,3] + x[0,2,2,2] <= 1
 move_0_2_22_14: x[0,1,4,3] + x[0,2,2,2] <= 1
 move_0_2_22_30: x[0,2,2,2] + x[0,3,0,3] <= 1
 move_0_2_22_34: x[0,2,2,2] + x[0,3,4,3] <= 1
 move_0_2_22_40: x[0,2,2,2] + x[0,4,0,3] <= 1
 move_0_2_22_41: x[0,2,2,2] + x[0,4,1,3] <= 1
 move_0_2_22_43: x[0,2,2,2] + x[0,4,3,3] <= 1
 move_0_2_22_44: x[0,2,2,2] + x[0,4,4,3] <= 1
 move_0_2_23_00: x[0,0,0,3] + x[0,2,3,2] <= 1
 move_0_2_23_01: x[0,0,1,3] + x[0,2,3,2] <= 1
 move_0_2_23_02: x[0,0,2,3] + x[0,2,3,2] <= 1
 move_0_2_23_04: x[0,0,4,3] + x[0,2,3,2] <= 1
 move_0_2_23_10: x[0,1,0,3] + x[0,2,3,2] <= 1
 move_0_2_23_11: x[0,1,1,3] + x[0,2,3,2] <= 1
 move_0_2_23_20: x[0,2,0,3] + x[0,2,3,2] <= 1
 move_0_2_23_30: x[0,2,3,2] + x[0,3,0,3] <= 1
 move_0_2_23_31: x[0,2,3,2] + x[0,3,1,3] <= 1
 move_0_2_23_40: x[0,2,3,2] + x[0,4,0,3] <= 1
 move_0_2_23_41: x[0,2,3,2] + x[0,4,1,3] <= 1
 move_0_2_23_42: x[0,2,3,2] + x[0,4,2,3] <= 1
 move_0_2_23_44: x[0,2,3,2] + x[0,4,4,3] <= 1
 move_0_2_24_00: x[0,0,0,3] + x[0,2,4,2] <= 1
 move_0_2_24_01: x[0,0,1,3] + x[0,2,4,2] <= 1
 move_0_2_24_02: x[0,0,2,3] + x[0,2,4,2] <= 1
 move_0_2_24_03: x[0,0,3,3] + x[0,2,4,2] <= 1
 move_0_2_24_10: x[0,1,0,3] + x[0,2,4,2] <= 1
 move_0_2_24_11: x[0,1,1,3] + x[0,2,4,2] <= 1
 move_0_2_24_12: x[0,1,2,3] + x[0,2,4,2] <= 1
 move_0_2_24_20: x[0,2,0,3] + x[0,2,4,2] <= 1
 move_0_2_24_21: x[0,2,1,3] + x[0,2,4,2] <= 1
 move_0_2_24_30: x[0,2,4,2] + x[0,3,0,3] <= 1
 move_0_2_24_31: x[0,2,4,2] + x[0,3,1,3] <= 1
 move_0_2_24_32: x[0,2,4,2] + x[0,3,2,3] <= 1
 move_0_2_24_40: x[0,2,4,2] + x[0,4,0,3] <= 1
 move_0_2_24_41: x[0,2,4,2] + x[0,4,1,3] <= 1
 move_0_2_24_42: x[0,2,4,2] + x[0,4,2,3] <= 1
 move_0_2_24_43: x[0,2,4,2] + x[0,4,3,3] <= 1
 move_0_2_30_00: x[0,0,0,3] + x[0,3,0,2] <= 1
 move_0_2_30_01: x[0,0,1,3] + x[0,3,0,2] <= 1
 move_0_2_30_02: x[0,0,2,3] + x[0,3,0,2] <= 1
 move_0_2_30_03: x[0,0,3,3] + x[0,3,0,2] <= 1
 move_0_2_30_04: x[0,0,4,3] + x[0,3,0,2] <= 1
 move_0_2_30_11: x[0,1,1,3] + x[0,3,0,2] <= 1
 move_0_2_30_12: x[0,1,2,3] + x[0,3,0,2] <= 1
 move_0_2_30_13: x[0,1,3,3] + x[0,3,0,2] <= 1
 move_0_2_30_14: x[0,1,4,3] + x[0,3,0,2] <= 1
 move_0_2_30_22: x[0,2,2,3] + x[0,3,0,2] <= 1
 move_0_2_30_23: x[0,2,3,3] + x[0,3,0,2] <= 1
 move_0_2_30_24: x[0,2,4,3] + x[0,3,0,2] <= 1
 move_0_2_30_33: x[0,3,0,2] + x[0,3,3,3] <= 1
 move_0_2_30_34: x[0,3,0,2] + x[0,3,4,3] <= 1
 move_0_2_30_42: x[0,3,0,2] + x[0,4,2,3] <= 1
 move_0_2_30_43: x[0,3,0,2] + x[0,4,3,3] <= 1
 move_0_2_30_44: x[0,3,0,2] + x[0,4,4,3] <= 1
 move_0_2_31_00: x[0,0,0,3] + x[0,3,1,2] <= 1
 move_0_2_31_01: x[0,0,1,3] + x[0,3,1,2] <= 1
 move_0_2_31_02: x[0,0,2,3] + x[0,3,1,2] <= 1
 move_0_2_31_03: x[0,0,3,3] + x[0,3,1,2] <= 1
 move_0_2_31_04: x[0,0,4,3] + x[0,3,1,2] <= 1
 move_0_2_31_10: x[0,1,0,3] + x[0,3,1,2] <= 1
 move_0_2_31_12: x[0,1,2,3] + x[0,3,1,2] <= 1
 move_0_2_31_13: x[0,1,3,3] + x[0,3,1,2] <= 1
 move_0_2_31_14: x[0,1,4,3] + x[0,3,1,2] <= 1
 move_0_2_31_23: x[0,2,3,3] + x[0,3,1,2] <= 1
 move_0_2_31_24: x[0,2,4,3] + x[0,3,1,2] <= 1
 move_0_2_31_34: x[0,3,1,2] + x[0,3,4,3] <= 1
 move_0_2_31_43: x[0,3,1,2] + x[0,4,3,3] <= 1
 move_0_2_31_44: x[0,3,1,2] + x[0,4,4,3] <= 1
 move_0_2_32_00: x[0,0,0,3] + x[0,3,2,2] <= 1
 move_0_2_32_01: x[0,0,1,3] + x[0,3,2,2] <= 1
 move_0_2_32_02: x[0,0,2,3] + x[0,3,2,2] <= 1
 move_0_2_32_03: x[0,0,3,3] + x[0,3,2,2] <= 1
 move_0_2_32_04: x[0,0,4,3] + x[0,3,2,2] <= 1
 move_0_2_32_10: x[0,1,0,3] + x[0,3,2,2] <= 1
 move_0_2_32_11: x[0,1,1,3] + x[0,3,2,2] <= 1
 move_0_2_32_13: x[0,1,3,3] + x[0,3,2,2] <= 1
 move_0_2_32_14: x[0,1,4,3] + x[0,3,2,2] <= 1
 move_0_2_32_20: x[0,2,0,3] + x[0,3,2,2] <= 1
 move_0_2_32_24: x[0,2,4,3] + x[0,3,2,2] <= 1
 move_0_2_32_40: x[0,3,2,2] + x[0,4,0,3] <= 1
 move_0_2_32_44: x[0,3,2,2] + x[0,4,4,3] <= 1
 move_0_2_33_00: x[0,0,0,3] + x[0,3,3,2] <= 1
 move_0_2_33_01: x[0,0,1,3] + x[0,3,3,2] <= 1
 move_0_2_33_02: x[0,0,2,3] + x[0,3,3,2] <= 1
 move_0_2_33_03: x[0,0,3,3] + x[0,3,3,2] <= 1
 move_0_2_33_04: x[0,0,4,3] + x[0,3,3,2] <= 1
 move_0_2_33_10: x[0,1,0,3] + x[0,3,3,2] <= 1
 move_0_2_33_11: x[0,1,1,3] + x[0,3,3,2] <= 1
 move_0_2_33_12: x[0,1,2,3] + x[0,3,3,2] <= 1
 move_0_2_33_14: x[0,1,4,3] + x[0,3,3,2] <= 1
 move_0_2_33_20: x[0,2,0,3] + x[0,3,3,2] <= 1
 move_0_2_33_21: x[0,2,1,3] + x[0,3,3,2] <= 1
 move_0_2_33_30: x[0,3,0,3] + x[0,3,3,2] <= 1
 move_0_2_33_40: x[0,3,3,2] + x[0,4,0,3] <= 1
 move_0_2_33_41: x[0,3,3,2] + x[0,4,1,3] <= 1
 move_0_2_34_00: x[0,0,0,3] + x[0,3,4,2] <= 1
 move_0_2_34_01: x[0,0,1,3] + x[0,3,4,2] <= 1
 move_0_2_34_02: x[0,0,2,3] + x[0,3,4,2] <= 1
 move_0_2_34_03: x[0,0,3,3] + x[0,3,4,2] <= 1
 move_0_2_34_04: x[0,0,4,3] + x[0,3,4,2] <= 1
 move_0_2_34_10: x[0,1,0,3] + x[0,3,4,2] <= 1
 move_0_2_34_11: x[0,1,1,3] + x[0,3,4,2] <= 1
 move_0_2_34_12: x[0,1,2,3] + x[0,3,4,2] <= 1
 move_0_2_34_13: x[0,1,3,3] + x[0,3,4,2] <= 1
 move_0_2_34_20: x[0,2,0,3] + x[0,3,4,2] <= 1
 move_0_2_34_21: x[0,2,1,3] + x[0,3,4,2] <= 1
 move_0_2_34_22: x[0,2,2,3] + x[0,3,4,2] <= 1
 move_0_2_34_30: x[0,3,0,3] + x[0,3,4,2] <= 1
 move_0_2_34_31: x[0,3,1,3] + x[0,3,4,2] <= 1
 move_0_2_34_40: x[0,3,4,2] + x[0,4,0,3] <= 1
 move_0_2_34_41: x[0,3,4,2] + x[0,4,1,3] <= 1
 move_0_2_34_42: x[0,3,4,2] + x[0,4,2,3] <= 1
 move_0_2_40_00: x[0,0,0,3] + x[0,4,0,2] <= 1
 move_0_2_40_01: x[0,0,1,3] + x[0,4,0,2] <= 1
 move_0_2_40_02: x[0,0,2,3] + x[0,4,0,2] <= 1
 move_0_2_40_03: x[0,0,3,3] + x[0,4,0,2] <= 1
 move_0_2_40_04: x[0,0,4,3] + x[0,4,0,2] <= 1
 move_0_2_40_10: x[0,1,0,3] + x[0,4,0,2] <= 1
 move_0_2_40_11: x[0,1,1,3] + x[0,4,0,2] <= 1
 move_0_2_40_12: x[0,1,2,3] + x[0,4,0,2] <= 1
 move_0_2_40_13: x[0,1,3,3] + x[0,4,0,2] <= 1
 move_0_2_40_14: x[0,1,4,3] + x[0,4,0,2] <= 1
 move_0_2_40_21: x[0,2,1,3] + x[0,4,0,2] <= 1
 move_0_2_40_22: x[0,2,2,3] + x[0,4,0,2] <= 1
 move_0_2_40_23: x[0,2,3,3] + x[0,4,0,2] <= 1
 move_0_2_40_24: x[0,2,4,3] + x[0,4,0,2] <= 1
 move_0_2_40_32: x[0,3,2,3] + x[0,4,0,2] <= 1
 move_0_2_40_33: x[0,3,3,3] + x[0,4,0,2] <= 1
 move_0_2_40_34: x[0,3,4,3] + x[0,4,0,2] <= 1
 move_0_2_40_43: x[0,4,0,2] + x[0,4,3,3] <= 1
 move_0_2_40_44: x[0,4,0,2] + x[0,4,4,3] <= 1
 move_0_2_41_00: x[0,0,0,3] + x[0,4,1,2] <= 1
 move_0_2_41_01: x[0,0,1,3] + x[0,4,1,2] <= 1
 move_0_2_41_02: x[0,0,2,3] + x[0,4,1,2] <= 1
 move_0_2_41_03: x[0,0,3,3] + x[0,4,1,2] <= 1
 move_0_2_41_04: x[0,0,4,3] + x[0,4,1,2] <= 1
 move_0_2_41_10: x[0,1,0,3] + x[0,4,1,2] <= 1
 move_0_2_41_11: x[0,1,1,3] + x[0,4,1,2] <= 1
 move_0_2_41_12: x[0,1,2,3] + x[0,4,1,2] <= 1
 move_0_2_41_13: x[0,1,3,3] + x[0,4,1,2] <= 1
 move_0_2_41_14: x[0,1,4,3] + x[0,4,1,2] <= 1
 move_0_2_41_20: x[0,2,0,3] + x[0,4,1,2] <= 1
 move_0_2_41_22: x[0,2,2,3] + x[0,4,1,2] <= 1
 move_0_2_41_23: x[0,2,3,3] + x[0,4,1,2] <= 1
 move_0_2_41_24: x[0,2,4,3] + x[0,4,1,2] <= 1
 move_0_2_41_33: x[0,3,3,3] + x[0,4,1,2] <= 1
 move_0_2_41_34: x[0,3,4,3] + x[0,4,1,2] <= 1
 move_0_2_41_44: x[0,4,1,2] + x[0,4,4,3] <= 1
 move_0_2_42_00: x[0,0,0,3] + x[0,4,2,2] <= 1
 move_0_2_42_01: x[0,0,1,3] + x[0,4,2,2] <= 1
 move_0_2_42_02: x[0,0,2,3] + x[0,4,2,2] <= 1
 move_0_2_42_03: x[0,0,3,3] + x[0,4,2,2] <= 1
 move_0_2_42_04: x[0,0,4,3] + x[0,4,2,2] <= 1
 move_0_2_42_10: x[0,1,0,3] + x[0,4,2,2] <= 1
 move_0_2_42_11: x[0,1,1,3] + x[0,4,2,2] <= 1
 move_0_2_42_12: x[0,1,2,3] + x[0,4,2,2] <= 1
 move_0_2_42_13: x[0,1,3,3] + x[0,4,2,2] <= 1
 move_0_2_42_14: x[0,1,4,3] + x[0,4,2,2] <= 1
 move_0_2_42_20: x[0,2,0,3] + x[0,4,2,2] <= 1
 move_0_2_42_21: x[0,2,1,3] + x[0,4,2,2] <= 1
 move_0_2_42_23: x[0,2,3,3] + x[0,4,2,2] <= 1
 move_0_2_42_24: x[0,2,4,3] + x[0,4,2,2] <= 1
 move_0_2_42_30: x[0,3,0,3] + x[0,4,2,2] <= 1
 move_0_2_42_34: x[0,3,4,3] + x[0,4,2,2] <= 1
 move_0_2_43_00: x[0,0,0,3] + x[0,4,3,2] <= 1
 move_0_2_43_01: x[0,0,1,3] + x[0,4,3,2] <= 1
 move_0_2_43_02: x[0,0,2,3] + x[0,4,3,2] <= 1
 move_0_2_43_03: x[0,0,3,3] + x[0,4,3,2] <= 1
 move_0_2_43_04: x[0,0,4,3] + x[0,4,3,2] <= 1
 move_0_2_43_10: x[0,1,0,3] + x[0,4,3,2] <= 1
 move_0_2_43_11: x[0,1,1,3] + x[0,4,3,2] <= 1
 move_0_2_43_12: x[0,1,2,3] + x[0,4,3,2] <= 1
 move_0_2_43_13: x[0,1,3,3] + x[0,4,3,2] <= 1
 move_0_2_43_14: x[0,1,4,3] + x[0,4,3,2] <= 1
 move_0_2_43_20: x[0,2,0,3] + x[0,4,3,2] <= 1
 move_0_2_43_21: x[0,2,1,3] + x[0,4,3,2] <= 1
 move_0_2_43_22: x[0,2,2,3] + x[0,4,3,2] <= 1
 move_0_2_43_24: x[0,2,4,3] + x[0,4,3,2] <= 1
 move_0_2_43_30: x[0,3,0,3] + x[0,4,3,2] <= 1
 move_0_2_43_31: x[0,3,1,3] + x[0,4,3,2] <= 1
 move_0_2_43_40: x[0,4,0,3] + x[0,4,3,2] <= 1
 move_0_2_44_00: x[0,0,0,3] + x[0,4,4,2] <= 1
 move_0_2_44_01: x[0,0,1,3] + x[0,4,4,2] <= 1
 move_0_2_44_02: x[0,0,2,3] + x[0,4,4,2] <= 1
 move_0_2_44_03: x[0,0,3,3] + x[0,4,4,2] <= 1
 move_0_2_44_04: x[0,0,4,3] + x[0,4,4,2] <= 1
 move_0_2_44_10: x[0,1,0,3] + x[0,4,4,2] <= 1
 move_0_2_44_11: x[0,1,1,3] + x[0,4,4,2] <= 1
 move_0_2_44_12: x[0,1,2,3] + x[0,4,4,2] <= 1
 move_0_2_44_13: x[0,1,3,3] + x[0,4,4,2] <= 1
 move_0_2_44_14: x[0,1,4,3] + x[0,4,4,2] <= 1
 move_0_2_44_20: x[0,2,0,3] + x[0,4,4,2] <= 1
 move_0_2_44_21: x[0,2,1,3] + x[0,4,4,2] <= 1
 move_0_2_44_22: x[0,2,2,3] + x[0,4,4,2] <= 1
 move_0_2_44_23: x[0,2,3,3] + x[0,4,4,2] <= 1
 move_0_2_44_30: x[0,3,0,3] + x[0,4,4,2] <= 1
 move_0_2_44_31: x[0,3,1,3] + x[0,4,4,2] <= 1
 move_0_2_44_32: x[0,3,2,3] + x[0,4,4,2] <= 1
 move_0_2_44_40: x[0,4,0,3] + x[0,4,4,2] <= 1
 move_0_2_44_41: x[0,4,1,3] + x[0,4,4,2] <= 1
 move_0_3_00_03: x[0,0,0,3] + x[0,0,3,4] <= 1
 move_0_3_00_04: x[0,0,0,3] + x[0,0,4,4] <= 1
 move_0_3_00_12: x[0,0,0,3] + x[0,1,2,4] <= 1
 move_0_3_00_13: x[0,0,0,3] + x[0,1,3,4] <= 1
 move_0_3_00_14: x[0,0,0,3] + x[0,1,4,4] <= 1
 move_0_3_00_21: x[0,0,0,3] + x[0,2,1,4] <= 1
 move_0_3_00_22: x[0,0,0,3] + x[0,2,2,4] <= 1
 move_0_3_00_23: x[0,0,0,3] + x[0,2,3,4] <= 1
 move_0_3_00_24: x[0,0,0,3] + x[0,2,4,4] <= 1
 move_0_3_00_30: x[0,0,0,3] + x[0,3,0,4] <= 1
 move_0_3_00_31: x[0,0,0,3] + x[0,3,1,4] <= 1
 move_0_3_00_32: x[0,0,0,3] + x[0,3,2,4] <= 1
 move_0_3_00_33: x[0,0,0,3] + x[0,3,3,4] <= 1
 move_0_3_00_34: x[0,0,0,3] + x[0,3,4,4] <= 1
 move_0_3_00_40: x[0,0,0,3] + x[0,4,0,4] <= 1
 move_0_3_00_41: x[0,0,0,3] + x[0,4,1,4] <= 1
 move_0_3_00_42: x[0,0,0,3] + x[0,4,2,4] <= 1
 move_0_3_00_43: x[0,0,0,3] + x[0,4,3,4] <= 1
 move_0_3_00_44: x[0,0,0,3] + x[0,4,4,4] <= 1
 move_0_3_01_04: x[0,0,1,3] + x[0,0,4,4] <= 1
 move_0_3_01_13: x[0,0,1,3] + x[0,1,3,4] <= 1
 move_0_3_01_14: x[0,0,1,3] + x[0,1,4,4] <= 1
 move_0_3_01_20: x[0,0,1,3] + x[0,2,0,4] <= 1
 move_0_3_01_22: x[0,0,1,3] + x[0,2,2,4] <= 1
 move_0_3_01_23: x[0,0,1,3] + x[0,2,3,4] <= 1
 move_0_3_01_24: x[0,0,1,3] + x[0,2,4,4] <= 1
 move_0_3_01_30: x[0,0,1,3] + x[0,3,0,4] <= 1
 move_0_3_01_31: x[0,0,1,3] + x[0,3,1,4] <= 1
 move_0_3_01_32: x[0,0,1,3] + x[0,3,2,4] <= 1
 move_0_3_01_33: x[0,0,1,3] + x[0,3,3,4] <= 1
 move_0_3_01_34: x[0,0,1,3] + x[0,3,4,4] <= 1
 move_0_3_01_40: x[0,0,1,3] + x[0,4,0,4] <= 1
 move_0_3_01_41: x[0,0,1,3] + x[0,4,1,4] <= 1
 move_0_3_01_42: x[0,0,1,3] + x[0,4,2,4] <= 1
 move_0_3_01_43: x[0,0,1,3] + x[0,4,3,4] <= 1
 move_0_3_01_44: x[0,0,1,3] + x[0,4,4,4] <= 1
 move_0_3_02_10: x[0,0,2,3] + x[0,1,0,4] <= 1
 move_0_3_02_14: x[0,0,2,3] + x[0,1,4,4] <= 1
 move_0_3_02_20: x[0,0,2,3] + x[0,2,0,4] <= 1
 move_0_3_02_21: x[0,0,2,3] + x[0,2,1,4] <= 1
 move_0_3_02_23: x[0,0,2,3] + x[0,2,3,4] <= 1
 move_0_3_02_24: x[0,0,2,3] + x[0,2,4,4] <= 1
 move_0_3_02_30: x[0,0,2,3] + x[0,3,0,4] <= 1
 move_0_3_02_31: x[0,0,2,3] + x[0,3,1,4] <= 1
 move_0_3_02_32: x[0,0,2,3] + x[0,3,2,4] <= 1
 move_0_3_02_33: x[0,0,2,3] + x[0,3,3,4] <= 1
 move_0_3_02_34: x[0,0,2,3] + x[0,3,4,4] <= 1
 move_0_3_02_40: x[0,0,2,3] + x[0,4,0,4] <= 1
 move_0_3_02_41: x[0,0,2,3] + x[0,4,1,4] <= 1
 move_0_3_02_42: x[0,0,2,3] + x[0,4,2,4] <= 1
 move_0_3_02_43: x[0,0,2,3] + x[0,4,3,4] <= 1
 move_0_3_02_44: x[0,0,2,3] + x[0,4,4,4] <= 1
 move_0_3_03_00: x[0,0,0,4] + x[0,0,3,3] <= 1
 move_0_3_03_10: x[0,0,3,3] + x[0,1,0,4] <= 1
 move_0_3_03_11: x[0,0,3,3] + x[0,1,1,4] <= 1
 move_0_3_03_20: x[0,0,3,3] + x[0,2,0,4] <= 1
 move_0_3_03_21: x[0,0,3,3] + x[0,2,1,4] <= 1
 move_0_3_03_22: x[0,0,3,3] + x[0,2,2,4] <= 1
 move_0_3_03_24: x[0,0,3,3] + x[0,2,4,4] <= 1
 move_0_3_03_30: x[0,0,3,3] + x[0,3,0,4] <= 1
 move_0_3_03_31: x[0,0,3,3] + x[0,3,1,4] <= 1
 move_0_3_03_32: x[0,0,3,3] + x[0,3,2,4] <= 1
 move_0_3_03_33: x[0,0,3,3] + x[0,3,3,4] <= 1
 move_0_3_03_34: x[0,0,3,3] + x[0,3,4,4] <= 1
 move_0_3_03_40: x[0,0,3,3] + x[0,4,0,4] <= 1
 move_0_3_03_41: x[0,0,3,3] + x[0,4,1,4] <= 1
 move_0_3_03_42: x[0,0,3,3] + x[0,4,2,4] <= 1
 move_0_3_03_43: x[0,0,3,3] + x[0,4,3,4] <= 1
 move_0_3_03_44: x[0,0,3,3] + x[0,4,4,4] <= 1
 move_0_3_04_00: x[0,0,0,4] + x[0,0,4,3] <= 1
 move_0_3_04_01: x[0,0,1,4] + x[0,0,4,3] <= 1
 move_0_3_04_10: x[0,0,4,3] + x[0,1,0,4] <= 1
 move_0_3_04_11: x[0,0,4,3] + x[0,1,1,4] <= 1
 move_0_3_04_12: x[0,0,4,3] + x[0,1,2,4] <= 1
 move_0_3_04_20: x[0,0,4,3] + x[0,2,0,4] <= 1
 move_0_3_04_21: x[0,0,4,3] + x[0,2,1,4] <= 1
 move_0_3_04_22: x[0,0,4,3] + x[0,2,2,4] <= 1
 move_0_3_04_23: x[0,0,4,3] + x[0,2,3,4] <= 1
 move_0_3_04_30: x[0,0,4,3] + x[0,3,0,4] <= 1
 move_0_3_04_31: x[0,0,4,3] + x[0,3,1,4] <= 1
 move_0_3_04_32: x[0,0,4,3] + x[0,3,2,4] <= 1
 move_0_3_04_33: x[0,0,4,3] + x[0,3,3,4] <= 1
 move_0_3_04_34: x[0,0,4,3] + x[0,3,4,4] <= 1
 move_0_3_04_40: x[0,0,4,3] + x[0,4,0,4] <= 1
 move_0_3_04_41: x[0,0,4,3] + x[0,4,1,4] <= 1
 move_0_3_04_42: x[0,0,4,3] + x[0,4,2,4] <= 1
 move_0_3_04_43: x[0,0,4,3] + x[0,4,3,4] <= 1
 move_0_3_04_44: x[0,0,4,3] + x[0,4,4,4] <= 1
 move_0_3_10_02: x[0,0,2,4] + x[0,1,0,3] <= 1
 move_0_3_10_03: x[0,0,3,4] + x[0,1,0,3] <= 1
 move_0_3_10_04: x[0,0,4,4] + x[0,1,0,3] <= 1
 move_0_3_10_13: x[0,1,0,3] + x[0,1,3,4] <= 1
 move_0_3_10_14: x[0,1,0,3] + x[0,1,4,4] <= 1
 move_0_3_10_22: x[0,1,0,3] + x[0,2,2,4] <= 1
 move_0_3_10_23: x[0,1,0,3] + x[0,2,3,4] <= 1
 move_0_3_10_24: x[0,1,0,3] + x[0,2,4,4] <= 1
 move_0_3_10_31: x[0,1,0,3] + x[0,3,1,4] <= 1
 move_0_3_10_32: x[0,1,0,3] + x[0,3,2,4] <= 1
 move_0_3_10_33: x[0,1,0,3] + x[0,3,3,4] <= 1
 move_0_3_10_34: x[0,1,0,3] + x[0,3,4,4] <= 1
 move_0_3_10_40: x[0,1,0,3] + x[0,4,0,4] <= 1
 move_0_3_10_41: x[0,1,0,3] + x[0,4,1,4] <= 1
 move_0_3_10_42: x[0,1,0,3] + x[0,4,2,4] <= 1
 move_0_3_10_43: x[0,1,0,3] + x[0,4,3,4] <= 1
 move_0_3_10_44: x[0,1,0,3] + x[0,4,4,4] <= 1
 move_0_3_11_03: x[0,0,3,4] + x[0,1,1,3] <= 1
 move_0_3_11_04: x[0,0,4,4] + x[0,1,1,3] <= 1
 move_0_3_11_14: x[0,1,1,3] + x[0,1,4,4] <= 1
 move_0_3_11_23: x[0,1,1,3] + x[0,2,3,4] <= 1
 move_0_3_11_24: x[0,1,1,3] + x[0,2,4,4] <= 1
 move_0_3_11_30: x[0,1,1,3] + x[0,3,0,4] <= 1
 move_0_3_11_32: x[0,1,1,3] + x[0,3,2,4] <= 1
 move_0_3_11_33: x[0,1,1,3] + x[0,3,3,4] <= 1
 move_0_3_11_34: x[0,1,1,3] + x[0,3,4,4] <= 1
 move_0_3_11_40: x[0,1,1,3] + x[0,4,0,4] <= 1
 move_0_3_11_41: x[0,1,1,3] + x[0,4,1,4] <= 1
 move_0_3_11_42: x[0,1,1,3] + x[0,4,2,4] <= 1
 move_0_3_11_43: x[0,1,1,3] + x[0,4,3,4] <= 1
 move_0_3_11_44: x[0,1,1,3] + x[0,4,4,4] <= 1
 move_0_3_12_00: x[0,0,0,4] + x[0,1,2,3] <= 1
 move_0_3_12_04: x[0,0,4,4] + x[0,1,2,3] <= 1
 move_0_3_12_20: x[0,1,2,3] + x[0,2,0,4] <= 1
 move_0_3_12_24: x[0,1,2,3] + x[0,2,4,4] <= 1
 move_0_3_12_30: x[0,1,2,3] + x[0,3,0,4] <= 1
 move_0_3_12_31: x[0,1,2,3] + x[0,3,1,4] <= 1
 move_0_3_12_33: x[0,1,2,3] + x[0,3,3,4] <= 1
 move_0_3_12_34: x[0,1,2,3] + x[0,3,4,4] <= 1
 move_0_3_12_40: x[0,1,2,3] + x[0,4,0,4] <= 1
 move_0_3_12_41: x[0,1,2,3] + x[0,4,1,4] <= 1
 move_0_3_12_42: x[0,1,2,3] + x[0,4,2,4] <= 1
 move_0_3_12_43: x[0,1,2,3] + x[0,4,3,4] <= 1
 move_0_3_12_44: x[0,1,2,3] + x[0,4,4,4] <= 1
 move_0_3_13_00: x[0,0,0,4] + x[0,1,3,3] <= 1
 move_0_3_13_01: x[0,0,1,4] + x[0,1,3,3] <= 1
 move_0_3_13_10: x[0,1,0,4] + x[0,1,3,3] <= 1
 move_0_3_13_20: x[0,1,3,3] + x[0,2,0,4] <= 1
 move_0_3_13_21: x[0,1,3,3] + x[0,2,1,4] <= 1
 move_0_3_13_30: x[0,1,3,3] + x[0,3,0,4] <= 1
 move_0_3_13_31: x[0,1,3,3] + x[0,3,1,4] <= 1
 move_0_3_13_32: x[0,1,3,3] + x[0,3,2,4] <= 1
 move_0_3_13_34: x[0,1,3,3] + x[0,3,4,4] <= 1
 move_0_3_13_40: x[0,1,3,3] + x[0,4,0,4] <= 1
 move_0_3_13_41: x[0,1,3,3] + x[0,4,1,4] <= 1
 move_0_3_13_42: x[0,1,3,3] + x[0,4,2,4] <= 1
 move_0_3_13_43: x[0,1,3,3] + x[0,4,3,4] <= 1
 move_0_3_13_44: x[0,1,3,3] + x[0,4,4,4] <= 1
 move_0_3_14_00: x[0,0,0,4] + x[0,1,4,3] <= 1
 move_0_3_14_01: x[0,0,1,4] + x[0,1,4,3] <= 1
 move_0_3_14_02: x[0,0,2,4] + x[0,1,4,3] <= 1
 move_0_3_14_10: x[0,1,0,4] + x[0,1,4,3] <= 1
 move_0_3_14_11: x[0,1,1,4] + x[0,1,4,3] <= 1
 move_0_3_14_20: x[0,1,4,3] + x[0,2,0,4] <= 1
 move_0_3_14_21: x[0,1,4,3] + x[0,2,1,4] <= 1
 move_0_3_14_22: x[0,1,4,3] + x[0,2,2,4] <= 1
 move_0_3_14_30: x[0,1,4,3] + x[0,3,0,4] <= 1
 move_0_3_14_31: x[0,1,4,3] + x[0,3,1,4] <= 1
 move_0_3_14_32: x[0,1,4,3] + x[0,3,2,4] <= 1
 move_0_3_14_33: x[0,1,4,3] + x[0,3,3,4] <= 1
 move_0_3_14_40: x[0,1,4,3] + x[0,4,0,4] <= 1
 move_0_3_14_41: x[0,1,4,3] + x[0,4,1,4] <= 1
 move_0_3_14_42: x[0,1,4,3] + x[0,4,2,4] <= 1
 move_0_3_14_43: x[0,1,4,3] + x[0,4,3,4] <= 1
 move_0_3_14_44: x[0,1,4,3] + x[0,4,4,4] <= 1
 move_0_3_20_01: x[0,0,1,4] + x[0,2,0,3] <= 1
 move_0_3_20_02: x[0,0,2,4] + x[0,2,0,3] <= 1
 move_0_3_20_03: x[0,0,3,4] + x[0,2,0,3] <= 1
 move_0_3_20_04: x[0,0,4,4] + x[0,2,0,3] <= 1
 move_0_3_20_12: x[0,1,2,4] + x[0,2,0,3] <= 1
 move_0_3_20_13: x[0,1,3,4] + x[0,2,0,3] <= 1
 move_0_3_20_14: x[0,1,4,4] + x[0,2,0,3] <= 1
 move_0_3_20_23: x[0,2,0,3] + x[0,2,3,4] <= 1
 move_0_3_20_24: x[0,2,0,3] + x[0,2,4,4] <= 1
 move_0_3_20_32: x[0,2,0,3] + x[0,3,2,4] <= 1
 move_0_3_20_33: x[0,2,0,3] + x[0,3,3,4] <= 1
 move_0_3_20_34: x[0,2,0,3] + x[0,3,4,4] <= 1
 move_0_3_20_41: x[0,2,0,3] + x[0,4,1,4] <= 1
 move_0_3_20_42: x[0,2,0,3] + x[0,4,2,4] <= 1
 move_0_3_20_43: x[0,2,0,3] + x[0,4,3,4] <= 1
 move_0_3_20_44: x[0,2,0,3] + x[0,4,4,4] <= 1
 move_0_3_21_00: x[0,0,0,4] + x[0,2,1,3] <= 1
 move_0_3_21_02: x[0,0,2,4] + x[0,2,1,3] <= 1
 move_0_3_21_03: x[0,0,3,4] + x[0,2,1,3] <= 1
 move_0_3_21_04: x[0,0,4,4] + x[0,2,1,3] <= 1
 move_0_3_21_13: x[0,1,3,4] + x[0,2,1,3] <= 1
 move_0_3_21_14: x[0,1,4,4] + x[0,2,1,3] <= 1
 move_0_3_21_24: x[0,2,1,3] + x[0,2,4,4] <= 1
 move_0_3_21_33: x[0,2,1,3] + x[0,3,3,4] <= 1
 move_0_3_21_34: x[0,2,1,3] + x[0,3,4,4] <= 1
 move_0_3_21_40: x[0,2,1,3] + x[0,4,0,4] <= 1
 move_0_3_21_42: x[0,2,1,3] + x[0,4,2,4] <= 1
 move_0_3_21_43: x[0,2,1,3] + x[0,4,3,4] <= 1
 move_0_3_21_44: x[0,2,1,3] + x[0,4,4,4] <= 1
 move_0_3_22_00: x[0,0,0,4] + x[0,2,2,3] <= 1
 move_0_3_22_01: x[0,0,1,4] + x[0,2,2,3] <= 1
 move_0_3_22_03: x[0,0,3,4] + x[0,2,2,3] <= 1
 move_0_3_22_04: x[0,0,4,4] + x[0,2,2,3] <= 1
 move_0_3_22_10: x[0,1,0,4] + x[0,2,2,3] <= 1
 move_0_3_22_14: x[0,1,4,4] + x[0,2,2,3] <= 1
 move_0_3_22_30: x[0,2,2,3] + x[0,3,0,4] <= 1
 move_0_3_22_34: x[0,2,2,3] + x[0,3,4,4] <= 1
 move_0_3_22_40: x[0,2,2,3] + x[0,4,0,4] <= 1
 move_0_3_22_41: x[0,2,2,3] + x[0,4,1,4] <= 1
 move_0_3_22_43: x[0,2,2,3] + x[0,4,3,4] <= 1
 move_0_3_22_44: x[0,2,2,3] + x[0,4,4,4] <= 1
 move_0_3_23_00: x[0,0,0,4] + x[0,2,3,3] <= 1
 move_0_3_23_01: x[0,0,1,4] + x[0,2,3,3] <= 1
 move_0_3_23_02: x[0,0,2,4] + x[0,2,3,3] <= 1
 move_0_3_23_04: x[0,0,4,4] + x[0,2,3,3] <= 1
 move_0_3_23_10: x[0,1,0,4] + x[0,2,3,3] <= 1
 move_0_3_23_11: x[0,1,1,4] + x[0,2,3,3] <= 1
 move_0_3_23_20: x[0,2,0,4] + x[0,2,3,3] <= 1
 move_0_3_23_30: x[0,2,3,3] + x[0,3,0,4] <= 1
 move_0_3_23_31: x[0,2,3,3] + x[0,3,1,4] <= 1
 move_0_3_23_40: x[0,2,3,3] + x[0,4,0,4] <= 1
 move_0_3_23_41: x[0,2,3,3] + x[0,4,1,4] <= 1
 move_0_3_23_42: x[0,2,3,3] + x[0,4,2,4] <= 1
 move_0_3_23_44: x[0,2,3,3] + x[0,4,4,4] <= 1
 move_0_3_24_00: x[0,0,0,4] + x[0,2,4,3] <= 1
 move_0_3_24_01: x[0,0,1,4] + x[0,2,4,3] <= 1
 move_0_3_24_02: x[0,0,2,4] + x[0,2,4,3] <= 1
 move_0_3_24_03: x[0,0,3,4] + x[0,2,4,3] <= 1
 move_0_3_24_10: x[0,1,0,4] + x[0,2,4,3] <= 1
 move_0_3_24_11: x[0,1,1,4] + x[0,2,4,3] <= 1
 move_0_3_24_12: x[0,1,2,4] + x[0,2,4,3] <= 1
 move_0_3_24_20: x[0,2,0,4] + x[0,2,4,3] <= 1
 move_0_3_24_21: x[0,2,1,4] + x[0,2,4,3] <= 1
 move_0_3_24_30: x[0,2,4,3] + x[0,3,0,4] <= 1
 move_0_3_24_31: x[0,2,4,3] + x[0,3,1,4] <= 1
 move_0_3_24_32: x[0,2,4,3] + x[0,3,2,4] <= 1
 move_0_3_24_40: x[0,2,4,3] + x[0,4,0,4] <= 1
 move_0_3_24_41: x[0,2,4,3] + x[0,4,1,4] <= 1
 move_0_3_24_42: x[0,2,4,3] + x[0,4,2,4] <= 1
 move_0_3_24_43: x[0,2,4,3] + x[0,4,3,4] <= 1
 move_0_3_30_00: x[0,0,0,4] + x[0,3,0,3] <= 1
 move_0_3_30_01: x[0,0,1,4] + x[0,3,0,3] <= 1
 move_0_3_30_02: x[0,0,2,4] + x[0,3,0,3] <= 1
 move_0_3_30_03: x[0,0,3,4] + x[0,3,0,3] <= 1
 move_0_3_30_04: x[0,0,4,4] + x[0,3,0,3] <= 1
 move_0_3_30_11: x[0,1,1,4] + x[0,3,0,3] <= 1
 move_0_3_30_12: x[0,1,2,4] + x[0,3,0,3] <= 1
 move_0_3_30_13: x[0,1,3,4] + x[0,3,0,3] <= 1
 move_0_3_30_14: x[0,1,4,4] + x[0,3,0,3] <= 1
 move_0_3_30_22: x[0,2,2,4] + x[0,3,0,3] <= 1
 move_0_3_30_23: x[0,2,3,4] + x[0,3,0,3] <= 1
 move_0_3_30_24: x[0,2,4,4] + x[0,3,0,3] <= 1
 move_0_3_30_33: x[0,3,0,3] + x[0,3,3,4] <= 1
 move_0_3_30_34: x[0,3,0,3] + x[0,3,4,4] <= 1
 move_0_3_30_42: x[0,3,0,3] + x[0,4,2,4] <= 1
 move_0_3_30_43: x[0,3,0,3] + x[0,4,3,4] <= 1
 move_0_3_30_44: x[0,3,0,3] + x[0,4,4,4] <= 1
 move_0_3_31_00: x[0,0,0,4] + x[0,3,1,3] <= 1
 move_0_3_31_01: x[0,0,1,4] + x[0,3,1,3] <= 1
 move_0_3_31_02: x[0,0,2,4] + x[0,3,1,3] <= 1
 move_0_3_31_03: x[0,0,3,4] + x[0,3,1,3] <= 1
 move_0_3_31_04: x[0,0,4,4] + x[0,3,1,3] <= 1
 move_0_3_31_10: x[0,1,0,4] + x[0,3,1,3] <= 1
 move_0_3_31_12: x[0,1,2,4] + x[0,3,1,3] <= 1
 move_0_3_31_13: x[0,1,3,4] + x[0,3,1,3] <= 1
 move_0_3_31_14: x[0,1,4,4] + x[0,3,1,3] <= 1
 move_0_3_31_23: x[0,2,3,4] + x[0,3,1,3] <= 1
 move_0_3_31_24: x[0,2,4,4] + x[0,3,1,3] <= 1
 move_0_3_31_34: x[0,3,1,3] + x[0,3,4,4] <= 1
 move_0_3_31_43: x[0,3,1,3] + x[0,4,3,4] <= 1
 move_0_3_31_44: x[0,3,1,3] + x[0,4,4,4] <= 1
 move_0_3_32_00: x[0,0,0,4] + x[0,3,2,3] <= 1
 move_0_3_32_01: x[0,0,1,4] + x[0,3,2,3] <= 1
 move_0_3_32_02: x[0,0,2,4] + x[0,3,2,3] <= 1
 move_0_3_32_03: x[0,0,3,4] + x[0,3,2,3] <= 1
 move_0_3_32_04: x[0,0,4,4] + x[0,3,2,3] <= 1
 move_0_3_32_10: x[0,1,0,4] + x[0,3,2,3] <= 1
 move_0_3_32_11: x[0,1,1,4] + x[0,3,2,3] <= 1
 move_0_3_32_13: x[0,1,3,4] + x[0,3,2,3] <= 1
 move_0_3_32_14: x[0,1,4,4] + x[0,3,2,3] <= 1
 move_0_3_32_20: x[0,2,0,4] + x[0,3,2,3] <= 1
 move_0_3_32_24: x[0,2,4,4] + x[0,3,2,3] <= 1
 move_0_3_32_40: x[0,3,2,3] + x[0,4,0,4] <= 1
 move_0_3_32_44: x[0,3,2,3] + x[0,4,4,4] <= 1
 move_0_3_33_00: x[0,0,0,4] + x[0,3,3,3] <= 1
 move_0_3_33_01: x[0,0,1,4] + x[0,3,3,3] <= 1
 move_0_3_33_02: x[0,0,2,4] + x[0,3,3,3] <= 1
 move_0_3_33_03: x[0,0,3,4] + x[0,3,3,3] <= 1
 move_0_3_33_04: x[0,0,4,4] + x[0,3,3,3] <= 1
 move_0_3_33_10: x[0,1,0,4] + x[0,3,3,3] <= 1
 move_0_3_33_11: x[0,1,1,4] + x[0,3,3,3] <= 1
 move_0_3_33_12: x[0,1,2,4] + x[0,3,3,3] <= 1
 move_0_3_33_14: x[0,1,4,4] + x[0,3,3,3] <= 1
 move_0_3_33_20: x[0,2,0,4] + x[0,3,3,3] <= 1
 move_0_3_33_21: x[0,2,1,4] + x[0,3,3,3] <= 1
 move_0_3_33_30: x[0,3,0,4] + x[0,3,3,3] <= 1
 move_0_3_33_40: x[0,3,3,3] + x[0,4,0,4] <= 1
 move_0_3_33_41: x[0,3,3,3] + x[0,4,1,4] <= 1
 move_0_3_34_00: x[0,0,0,4] + x[0,3,4,3] <= 1
 move_0_3_34_01: x[0,0,1,4] + x[0,3,4,3] <= 1
 move_0_3_34_02: x[0,0,2,4] + x[0,3,4,3] <= 1
 move_0_3_34_03: x[0,0,3,4] + x[0,3,4,3] <= 1
 move_0_3_34_04: x[0,0,4,4] + x[0,3,4,3] <= 1
 move_0_3_34_10: x[0,1,0,4] + x[0,3,4,3] <= 1
 move_0_3_34_11: x[0,1,1,4] + x[0,3,4,3] <= 1
 move_0_3_34_12: x[0,1,2,4] + x[0,3,4,3] <= 1
 move_0_3_34_13: x[0,1,3,4] + x[0,3,4,3] <= 1
 move_0_3_34_20: x[0,2,0,4] + x[0,3,4,3] <= 1
 move_0_3_34_21: x[0,2,1,4] + x[0,3,4,3] <= 1
 move_0_3_34_22: x[0,2,2,4] + x[0,3,4,3] <= 1
 move_0_3_34_30: x[0,3,0,4] + x[0,3,4,3] <= 1
 move_0_3_34_31: x[0,3,1,4] + x[0,3,4,3] <= 1
 move_0_3_34_40: x[0,3,4,3] + x[0,4,0,4] <= 1
 move_0_3_34_41: x[0,3,4,3] + x[0,4,1,4] <= 1
 move_0_3_34_42: x[0,3,4,3] + x[0,4,2,4] <= 1
 move_0_3_40_00: x[0,0,0,4] + x[0,4,0,3] <= 1
 move_0_3_40_01: x[0,0,1,4] + x[0,4,0,3] <= 1
 move_0_3_40_02: x[0,0,2,4] + x[0,4,0,3] <= 1
 move_0_3_40_03: x[0,0,3,4] + x[0,4,0,3] <= 1
 move_0_3_40_04: x[0,0,4,4] + x[0,4,0,3] <= 1
 move_0_3_40_10: x[0,1,0,4] + x[0,4,0,3] <= 1
 move_0_3_40_11: x[0,1,1,4] + x[0,4,0,3] <= 1
 move_0_3_40_12: x[0,1,2,4] + x[0,4,0,3] <= 1
 move_0_3_40_13: x[0,1,3,4] + x[0,4,0,3] <= 1
 move_0_3_40_14: x[0,1,4,4] + x[0,4,0,3] <= 1
 move_0_3_40_21: x[0,2,1,4] + x[0,4,0,3] <= 1
 move_0_3_40_22: x[0,2,2,4] + x[0,4,0,3] <= 1
 move_0_3_40_23: x[0,2,3,4] + x[0,4,0,3] <= 1
 move_0_3_40_24: x[0,2,4,4] + x[0,4,0,3] <= 1
 move_0_3_40_32: x[0,3,2,4] + x[0,4,0,3] <= 1
 move_0_3_40_33: x[0,3,3,4] + x[0,4,0,3] <= 1
 move_0_3_40_34: x[0,3,4,4] + x[0,4,0,3] <= 1
 move_0_3_40_43: x[0,4,0,3] + x[0,4,3,4] <= 1
 move_0_3_40_44: x[0,4,0,3] + x[0,4,4,4] <= 1
 move_0_3_41_00: x[0,0,0,4] + x[0,4,1,3] <= 1
 move_0_3_41_01: x[0,0,1,4] + x[0,4,1,3] <= 1
 move_0_3_41_02: x[0,0,2,4] + x[0,4,1,3] <= 1
 move_0_3_41_03: x[0,0,3,4] + x[0,4,1,3] <= 1
 move_0_3_41_04: x[0,0,4,4] + x[0,4,1,3] <= 1
 move_0_3_41_10: x[0,1,0,4] + x[0,4,1,3] <= 1
 move_0_3_41_11: x[0,1,1,4] + x[0,4,1,3] <= 1
 move_0_3_41_12: x[0,1,2,4] + x[0,4,1,3] <= 1
 move_0_3_41_13: x[0,1,3,4] + x[0,4,1,3] <= 1
 move_0_3_41_14: x[0,1,4,4] + x[0,4,1,3] <= 1
 move_0_3_41_20: x[0,2,0,4] + x[0,4,1,3] <= 1
 move_0_3_41_22: x[0,2,2,4] + x[0,4,1,3] <= 1
 move_0_3_41_23: x[0,2,3,4] + x[0,4,1,3] <= 1
 move_0_3_41_24: x[0,2,4,4] + x[0,4,1,3] <= 1
 move_0_3_41_33: x[0,3,3,4] + x[0,4,1,3] <= 1
 move_0_3_41_34: x[0,3,4,4] + x[0,4,1,3] <= 1
 move_0_3_41_44: x[0,4,1,3] + x[0,4,4,4] <= 1
 move_0_3_42_00: x[0,0,0,4] + x[0,4,2,3] <= 1
 move_0_3_42_01: x[0,0,1,4] + x[0,4,2,3] <= 1
 move_0_3_42_02: x[0,0,2,4] + x[0,4,2,3] <= 1
 move_0_3_42_03: x[0,0,3,4] + x[0,4,2,3] <= 1
 move_0_3_42_04: x[0,0,4,4] + x[0,4,2,3] <= 1
 move_0_3_42_10: x[0,1,0,4] + x[0,4,2,3] <= 1
 move_0_3_42_11: x[0,1,1,4] + x[0,4,2,3] <= 1
 move_0_3_42_12: x[0,1,2,4] + x[0,4,2,3] <= 1
 move_0_3_42_13: x[0,1,3,4] + x[0,4,2,3] <= 1
 move_0_3_42_14: x[0,1,4,4] + x[0,4,2,3] <= 1
 move_0_3_42_20: x[0,2,0,4] + x[0,4,2,3] <= 1
 move_0_3_42_21: x[0,2,1,4] + x[0,4,2,3] <= 1
 move_0_3_42_23: x[0,2,3,4] + x[0,4,2,3] <= 1
 move_0_3_42_24: x[0,2,4,4] + x[0,4,2,3] <= 1
 move_0_3_42_30: x[0,3,0,4] + x[0,4,2,3] <= 1
 move_0_3_42_34: x[0,3,4,4] + x[0,4,2,3] <= 1
 move_0_3_43_00: x[0,0,0,4] + x[0,4,3,3] <= 1
 move_0_3_43_01: x[0,0,1,4] + x[0,4,3,3] <= 1
 move_0_3_43_02: x[0,0,2,4] + x[0,4,3,3] <= 1
 move_0_3_43_03: x[0,0,3,4] + x[0,4,3,3] <= 1
 move_0_3_43_04: x[0,0,4,4] + x[0,4,3,3] <= 1
 move_0_3_43_10: x[0,1,0,4] + x[0,4,3,3] <= 1
 move_0_3_43_11: x[0,1,1,4] + x[0,4,3,3] <= 1
 move_0_3_43_12: x[0,1,2,4] + x[0,4,3,3] <= 1
 move_0_3_43_13: x[0,1,3,4] + x[0,4,3,3] <= 1
 move_0_3_43_14: x[0,1,4,4] + x[0,4,3,3] <= 1
 move_0_3_43_20: x[0,2,0,4] + x[0,4,3,3] <= 1
 move_0_3_43_21: x[0,2,1,4] + x[0,4,3,3] <= 1
 move_0_3_43_22: x[0,2,2,4] + x[0,4,3,3] <= 1
 move_0_3_43_24: x[0,2,4,4] + x[0,4,3,3] <= 1
 move_0_3_43_30: x[0,3,0,4] + x[0,4,3,3] <= 1
 move_0_3_43_31: x[0,3,1,4] + x[0,4,3,3] <= 1
 move_0_3_43_40: x[0,4,0,4] + x[0,4,3,3] <= 1
 move_0_3_44_00: x[0,0,0,4] + x[0,4,4,3] <= 1
 move_0_3_44_01: x[0,0,1,4] + x[0,4,4,3] <= 1
 move_0_3_44_02: x[0,0,2,4] + x[0,4,4,3] <= 1
 move_0_3_44_03: x[0,0,3,4] + x[0,4,4,3] <= 1
 move_0_3_44_04: x[0,0,4,4] + x[0,4,4,3] <= 1
 move_0_3_44_10: x[0,1,0,4] + x[0,4,4,3] <= 1
 move_0_3_44_11: x[0,1,1,4] + x[0,4,4,3] <= 1
 move_0_3_44_12: x[0,1,2,4] + x[0,4,4,3] <= 1
 move_0_3_44_13: x[0,1,3,4] + x[0,4,4,3] <= 1
 move_0_3_44_14: x[0,1,4,4] + x[0,4,4,3] <= 1
 move_0_3_44_20: x[0,2,0,4] + x[0,4,4,3] <= 1
 move_0_3_44_21: x[0,2,1,4] + x[0,4,4,3] <= 1
 move_0_3_44_22: x[0,2,2,4] + x[0,4,4,3] <= 1
 move_0_3_44_23: x[0,2,3,4] + x[0,4,4,3] <= 1
 move_0_3_44_30: x[0,3,0,4] + x[0,4,4,3] <= 1
 move_0_3_44_31: x[0,3,1,4] + x[0,4,4,3] <= 1
 move_0_3_44_32: x[0,3,2,4] + x[0,4,4,3] <= 1
 move_0_3_44_40: x[0,4,0,4] + x[0,4,4,3] <= 1
 move_0_3_44_41: x[0,4,1,4] + x[0,4,4,3] <= 1
 move_0_4_00_03: x[0,0,0,4] + x[0,0,3,5] <= 1
 move_0_4_00_04: x[0,0,0,4] + x[0,0,4,5] <= 1
 move_0_4_00_12: x[0,0,0,4] + x[0,1,2,5] <= 1
 move_0_4_00_13: x[0,0,0,4] + x[0,1,3,5] <= 1
 move_0_4_00_14: x[0,0,0,4] + x[0,1,4,5] <= 1
 move_0_4_00_21: x[0,0,0,4] + x[0,2,1,5] <= 1
 move_0_4_00_22: x[0,0,0,4] + x[0,2,2,5] <= 1
 move_0_4_00_23: x[0,0,0,4] + x[0,2,3,5] <= 1
 move_0_4_00_24: x[0,0,0,4] + x[0,2,4,5] <= 1
 move_0_4_00_30: x[0,0,0,4] + x[0,3,0,5] <= 1
 move_0_4_00_31: x[0,0,0,4] + x[0,3,1,5] <= 1
 move_0_4_00_32: x[0,0,0,4] + x[0,3,2,5] <= 1
 move_0_4_00_33: x[0,0,0,4] + x[0,3,3,5] <= 1
 move_0_4_00_34: x[0,0,0,4] + x[0,3,4,5] <= 1
 move_0_4_00_40: x[0,0,0,4] + x[0,4,0,5] <= 1
 move_0_4_00_41: x[0,0,0,4] + x[0,4,1,5] <= 1
 move_0_4_00_42: x[0,0,0,4] + x[0,4,2,5] <= 1
 move_0_4_00_43: x[0,0,0,4] + x[0,4,3,5] <= 1
 move_0_4_00_44: x[0,0,0,4] + x[0,4,4,5] <= 1
 move_0_4_01_04: x[0,0,1,4] + x[0,0,4,5] <= 1
 move_0_4_01_13: x[0,0,1,4] + x[0,1,3,5] <= 1
 move_0_4_01_14: x[0,0,1,4] + x[0,1,4,5] <= 1
 move_0_4_01_20: x[0,0,1,4] + x[0,2,0,5] <= 1
 move_0_4_01_22: x[0,0,1,4] + x[0,2,2,5] <= 1
 move_0_4_01_23: x[0,0,1,4] + x[0,2,3,5] <= 1
 move_0_4_01_24: x[0,0,1,4] + x[0,2,4,5] <= 1
 move_0_4_01_30: x[0,0,1,4] + x[0,3,0,5] <= 1
 move_0_4_01_31: x[0,0,1,4] + x[0,3,1,5] <= 1
 move_0_4_01_32: x[0,0,1,4] + x[0,3,2,5] <= 1
 move_0_4_01_33: x[0,0,1,4] + x[0,3,3,5] <= 1
 move_0_4_01_34: x[0,0,1,4] + x[0,3,4,5] <= 1
 move_0_4_01_40: x[0,0,1,4] + x[0,4,0,5] <= 1
 move_0_4_01_41: x[0,0,1,4] + x[0,4,1,5] <= 1
 move_0_4_01_42: x[0,0,1,4] + x[0,4,2,5] <= 1
 move_0_4_01_43: x[0,0,1,4] + x[0,4,3,5] <= 1
 move_0_4_01_44: x[0,0,1,4] + x[0,4,4,5] <= 1
 move_0_4_02_10: x[0,0,2,4] + x[0,1,0,5] <= 1
 move_0_4_02_14: x[0,0,2,4] + x[0,1,4,5] <= 1
 move_0_4_02_20: x[0,0,2,4] + x[0,2,0,5] <= 1
 move_0_4_02_21: x[0,0,2,4] + x[0,2,1,5] <= 1
 move_0_4_02_23: x[0,0,2,4] + x[0,2,3,5] <= 1
 move_0_4_02_24: x[0,0,2,4] + x[0,2,4,5] <= 1
 move_0_4_02_30: x[0,0,2,4] + x[0,3,0,5] <= 1
 move_0_4_02_31: x[0,0,2,4] + x[0,3,1,5] <= 1
 move_0_4_02_32: x[0,0,2,4] + x[0,3,2,5] <= 1
 move_0_4_02_33: x[0,0,2,4] + x[0,3,3,5] <= 1
 move_0_4_02_34: x[0,0,2,4] + x[0,3,4,5] <= 1
 move_0_4_02_40: x[0,0,2,4] + x[0,4,0,5] <= 1
 move_0_4_02_41: x[0,0,2,4] + x[0,4,1,5] <= 1
 move_0_4_02_42: x[0,0,2,4] + x[0,4,2,5] <= 1
 move_0_4_02_43: x[0,0,2,4] + x[0,4,3,5] <= 1
 move_0_4_02_44: x[0,0,2,4] + x[0,4,4,5] <= 1
 move_0_4_03_00: x[0,0,0,5] + x[0,0,3,4] <= 1
 move_0_4_03_10: x[0,0,3,4] + x[0,1,0,5] <= 1
 move_0_4_03_11: x[0,0,3,4] + x[0,1,1,5] <= 1
 move_0_4_03_20: x[0,0,3,4] + x[0,2,0,5] <= 1
 move_0_4_03_21: x[0,0,3,4] + x[0,2,1,5] <= 1
 move_0_4_03_22: x[0,0,3,4] + x[0,2,2,5] <= 1
 move_0_4_03_24: x[0,0,3,4] + x[0,2,4,5] <= 1
 move_0_4_03_30: x[0,0,3,4] + x[0,3,0,5] <= 1
 move_0_4_03_31: x[0,0,3,4] + x[0,3,1,5] <= 1
 move_0_4_03_32: x[0,0,3,4] + x[0,3,2,5] <= 1
 move_0_4_03_33: x[0,0,3,4] + x[0,3,3,5] <= 1
 move_0_4_03_34: x[0,0,3,4] + x[0,3,4,5] <= 1
 move_0_4_03_40: x[0,0,3,4] + x[0,4,0,5] <= 1
 move_0_4_03_41: x[0,0,3,4] + x[0,4,1,5] <= 1
 move_0_4_03_42: x[0,0,3,4] + x[0,4,2,5] <= 1
 move_0_4_03_43: x[0,0,3,4] + x[0,4,3,5] <= 1
 move_0_4_03_44: x[0,0,3,4] + x[0,4,4,5] <= 1
 move_0_4_04_00: x[0,0,0,5] + x[0,0,4,4] <= 1
 move_0_4_04_01: x[0,0,1,5] + x[0,0,4,4] <= 1
 move_0_4_04_10: x[0,0,4,4] + x[0,1,0,5] <= 1
 move_0_4_04_11: x[0,0,4,4] + x[0,1,1,5] <= 1
 move_0_4_04_12: x[0,0,4,4] + x[0,1,2,5] <= 1
 move_0_4_04_20: x[0,0,4,4] + x[0,2,0,5] <= 1
 move_0_4_04_21: x[0,0,4,4] + x[0,2,1,5] <= 1
 move_0_4_04_22: x[0,0,4,4] + x[0,2,2,5] <= 1
 move_0_4_04_23: x[0,0,4,4] + x[0,2,3,5] <= 1
 move_0_4_04_30: x[0,0,4,4] + x[0,3,0,5] <= 1
 move_0_4_04_31: x[0,0,4,4] + x[0,3,1,5] <= 1
 move_0_4_04_32: x[0,0,4,4] + x[0,3,2,5] <= 1
 move_0_4_04_33: x[0,0,4,4] + x[0,3,3,5] <= 1
 move_0_4_04_34: x[0,0,4,4] + x[0,3,4,5] <= 1
 move_0_4_04_40: x[0,0,4,4] + x[0,4,0,5] <= 1
 move_0_4_04_41: x[0,0,4,4] + x[0,4,1,5] <= 1
 move_0_4_04_42: x[0,0,4,4] + x[0,4,2,5] <= 1
 move_0_4_04_43: x[0,0,4,4] + x[0,4,3,5] <= 1
 move_0_4_04_44: x[0,0,4,4] + x[0,4,4,5] <= 1
 move_0_4_10_02: x[0,0,2,5] + x[0,1,0,4] <= 1
 move_0_4_10_03: x[0,0,3,5] + x[0,1,0,4] <= 1
 move_0_4_10_04: x[0,0,4,5] + x[0,1,0,4] <= 1
 move_0_4_10_13: x[0,1,0,4] + x[0,1,3,5] <= 1
 move_0_4_10_14: x[0,1,0,4] + x[0,1,4,5] <= 1
 move_0_4_10_22: x[0,1,0,4] + x[0,2,2,5] <= 1
 move_0_4_10_23: x[0,1,0,4] + x[0,2,3,5] <= 1
 move_0_4_10_24: x[0,1,0,4] + x[0,2,4,5] <= 1
 move_0_4_10_31: x[0,1,0,4] + x[0,3,1,5] <= 1
 move_0_4_10_32: x[0,1,0,4] + x[0,3,2,5] <= 1
 move_0_4_10_33: x[0,1,0,4] + x[0,3,3,5] <= 1
 move_0_4_10_34: x[0,1,0,4] + x[0,3,4,5] <= 1
 move_0_4_10_40: x[0,1,0,4] + x[0,4,0,5] <= 1
 move_0_4_10_41: x[0,1,0,4] + x[0,4,1,5] <= 1
 move_0_4_10_42: x[0,1,0,4] + x[0,4,2,5] <= 1
 move_0_4_10_43: x[0,1,0,4] + x[0,4,3,5] <= 1
 move_0_4_10_44: x[0,1,0,4] + x[0,4,4,5] <= 1
 move_0_4_11_03: x[0,0,3,5] + x[0,1,1,4] <= 1
 move_0_4_11_04: x[0,0,4,5] + x[0,1,1,4] <= 1
 move_0_4_11_14: x[0,1,1,4] + x[0,1,4,5] <= 1
 move_0_4_11_23: x[0,1,1,4] + x[0,2,3,5] <= 1
 move_0_4_11_24: x[0,1,1,4] + x[0,2,4,5] <= 1
 move_0_4_11_30: x[0,1,1,4] + x[0,3,0,5] <= 1
 move_0_4_11_32: x[0,1,1,4] + x[0,3,2,5] <= 1
 move_0_4_11_33: x[0,1,1,4] + x[0,3,3,5] <= 1
 move_0_4_11_34: x[0,1,1,4] + x[0,3,4,5] <= 1
 move_0_4_11_40: x[0,1,1,4] + x[0,4,0,5] <= 1
 move_0_4_11_41: x[0,1,1,4] + x[0,4,1,5] <= 1
 move_0_4_11_42: x[0,1,1,4] + x[0,4,2,5] <= 1
 move_0_4_11_43: x[0,1,1,4] + x[0,4,3,5] <= 1
 move_0_4_11_44: x[0,1,1,4] + x[0,4,4,5] <= 1
 move_0_4_12_00: x[0,0,0,5] + x[0,1,2,4] <= 1
 move_0_4_12_04: x[0,0,4,5] + x[0,1,2,4] <= 1
 move_0_4_12_20: x[0,1,2,4] + x[0,2,0,5] <= 1
 move_0_4_12_24: x[0,1,2,4] + x[0,2,4,5] <= 1
 move_0_4_12_30: x[0,1,2,4] + x[0,3,0,5] <= 1
 move_0_4_12_31: x[0,1,2,4] + x[0,3,1,5] <= 1
 move_0_4_12_33: x[0,1,2,4] + x[0,3,3,5] <= 1
 move_0_4_12_34: x[0,1,2,4] + x[0,3,4,5] <= 1
 move_0_4_12_40: x[0,1,2,4] + x[0,4,0,5] <= 1
 move_0_4_12_41: x[0,1,2,4] + x[0,4,1,5] <= 1
 move_0_4_12_42: x[0,1,2,4] + x[0,4,2,5] <= 1
 move_0_4_12_43: x[0,1,2,4] + x[0,4,3,5] <= 1
 move_0_4_12_44: x[0,1,2,4] + x[0,4,4,5] <= 1
 move_0_4_13_00: x[0,0,0,5] + x[0,1,3,4] <= 1
 move_0_4_13_01: x[0,0,1,5] + x[0,1,3,4] <= 1
 move_0_4_13_10: x[0,1,0,5] + x[0,1,3,4] <= 1
 move_0_4_13_20: x[0,1,3,4] + x[0,2,0,5] <= 1
 move_0_4_13_21: x[0,1,3,4] + x[0,2,1,5] <= 1
 move_0_4_13_30: x[0,1,3,4] + x[0,3,0,5] <= 1
 move_0_4_13_31: x[0,1,3,4] + x[0,3,1,5] <= 1
 move_0_4_13_32: x[0,1,3,4] + x[0,3,2,5] <= 1
 move_0_4_13_34: x[0,1,3,4] + x[0,3,4,5] <= 1
 move_0_4_13_40: x[0,1,3,4] + x[0,4,0,5] <= 1
 move_0_4_13_41: x[0,1,3,4] + x[0,4,1,5] <= 1
 move_0_4_13_42: x[0,1,3,4] + x[0,4,2,5] <= 1
 move_0_4_13_43: x[0,1,3,4] + x[0,4,3,5] <= 1
 move_0_4_13_44: x[0,1,3,4] + x[0,4,4,5] <= 1
 move_0_4_14_00: x[0,0,0,5] + x[0,1,4,4] <= 1
 move_0_4_14_01: x[0,0,1,5] + x[0,1,4,4] <= 1
 move_0_4_14_02: x[0,0,2,5] + x[0,1,4,4] <= 1
 move_0_4_14_10: x[0,1,0,5] + x[0,1,4,4] <= 1
 move_0_4_14_11: x[0,1,1,5] + x[0,1,4,4] <= 1
 move_0_4_14_20: x[0,1,4,4] + x[0,2,0,5] <= 1
 move_0_4_14_21: x[0,1,4,4] + x[0,2,1,5] <= 1
 move_0_4_14_22: x[0,1,4,4] + x[0,2,2,5] <= 1
 move_0_4_14_30: x[0,1,4,4] + x[0,3,0,5] <= 1
 move_0_4_14_31: x[0,1,4,4] + x[0,3,1,5] <= 1
 move_0_4_14_32: x[0,1,4,4] + x[0,3,2,5] <= 1
 move_0_4_14_33: x[0,1,4,4] + x[0,3,3,5] <= 1
 move_0_4_14_40: x[0,1,4,4] + x[0,4,0,5] <= 1
 move_0_4_14_41: x[0,1,4,4] + x[0,4,1,5] <= 1
 move_0_4_14_42: x[0,1,4,4] + x[0,4,2,5] <= 1
 move_0_4_14_43: x[0,1,4,4] + x[0,4,3,5] <= 1
 move_0_4_14_44: x[0,1,4,4] + x[0,4,4,5] <= 1
 move_0_4_20_01: x[0,0,1,5] + x[0,2,0,4] <= 1
 move_0_4_20_02: x[0,0,2,5] + x[0,2,0,4] <= 1
 move_0_4_20_03: x[0,0,3,5] + x[0,2,0,4] <= 1
 move_0_4_20_04: x[0,0,4,5] + x[0,2,0,4] <= 1
 move_0_4_20_12: x[0,1,2,5] + x[0,2,0,4] <= 1
 move_0_4_20_13: x[0,1,3,5] + x[0,2,0,4] <= 1
 move_0_4_20_14: x[0,1,4,5] + x[0,2,0,4] <= 1
 move_0_4_20_23: x[0,2,0,4] + x[0,2,3,5] <= 1
 move_0_4_20_24: x[0,2,0,4] + x[0,2,4,5] <= 1
 move_0_4_20_32: x[0,2,0,4] + x[0,3,2,5] <= 1
 move_0_4_20_33: x[0,2,0,4] + x[0,3,3,5] <= 1
 move_0_4_20_34: x[0,2,0,4] + x[0,3,4,5] <= 1
 move_0_4_20_41: x[0,2,0,4] + x[0,4,1,5] <= 1
 move_0_4_20_42: x[0,2,0,4] + x[0,4,2,5] <= 1
 move_0_4_20_43: x[0,2,0,4] + x[0,4,3,5] <= 1
 move_0_4_20_44: x[0,2,0,4] + x[0,4,4,5] <= 1
 move_0_4_21_00: x[0,0,0,5] + x[0,2,1,4] <= 1
 move_0_4_21_02: x[0,0,2,5] + x[0,2,1,4] <= 1
 move_0_4_21_03: x[0,0,3,5] + x[0,2,1,4] <= 1
 move_0_4_21_04: x[0,0,4,5] + x[0,2,1,4] <= 1
 move_0_4_21_13: x[0,1,3,5] + x[0,2,1,4] <= 1
 move_0_4_21_14: x[0,1,4,5] + x[0,2,1,4] <= 1
 move_0_4_21_24: x[0,2,1,4] + x[0,2,4,5] <= 1
 move_0_4_21_33: x[0,2,1,4] + x[0,3,3,5] <= 1
 move_0_4_21_34: x[0,2,1,4] + x[0,3,4,5] <= 1
 move_0_4_21_40: x[0,2,1,4] + x[0,4,0,5] <= 1
 move_0_4_21_42: x[0,2,1,4] + x[0,4,2,5] <= 1
 move_0_4_21_43: x[0,2,1,4] + x[0,4,3,5] <= 1
 move_0_4_21_44: x[0,2,1,4] + x[0,4,4,5] <= 1
 move_0_4_22_00: x[0,0,0,5] + x[0,2,2,4] <= 1
 move_0_4_22_01: x[0,0,1,5] + x[0,2,2,4] <= 1
 move_0_4_22_03: x[0,0,3,5] + x[0,2,2,4] <= 1
 move_0_4_22_04: x[0,0,4,5] + x[0,2,2,4] <= 1
 move_0_4_22_10: x[0,1,0,5] + x[0,2,2,4] <= 1
 move_0_4_22_14: x[0,1,4,5] + x[0,2,2,4] <= 1
 move_0_4_22_30: x[0,2,2,4] + x[0,3,0,5] <= 1
 move_0_4_22_34: x[0,2,2,4] + x[0,3,4,5] <= 1
 move_0_4_22_40: x[0,2,2,4] + x[0,4,0,5] <= 1
 move_0_4_22_41: x[0,2,2,4] + x[0,4,1,5] <= 1
 move_0_4_22_43: x[0,2,2,4] + x[0,4,3,5] <= 1
 move_0_4_22_44: x[0,2,2,4] + x[0,4,4,5] <= 1
 move_0_4_23_00: x[0,0,0,5] + x[0,2,3,4] <= 1
 move_0_4_23_01: x[0,0,1,5] + x[0,2,3,4] <= 1
 move_0_4_23_02: x[0,0,2,5] + x[0,2,3,4] <= 1
 move_0_4_23_04: x[0,0,4,5] + x[0,2,3,4] <= 1
 move_0_4_23_10: x[0,1,0,5] + x[0,2,3,4] <= 1
 move_0_4_23_11: x[0,1,1,5] + x[0,2,3,4] <= 1
 move_0_4_23_20: x[0,2,0,5] + x[0,2,3,4] <= 1
 move_0_4_23_30: x[0,2,3,4] + x[0,3,0,5] <= 1
 move_0_4_23_31: x[0,2,3,4] + x[0,3,1,5] <= 1
 move_0_4_23_40: x[0,2,3,4] + x[0,4,0,5] <= 1
 move_0_4_23_41: x[0,2,3,4] + x[0,4,1,5] <= 1
 move_0_4_23_42: x[0,2,3,4] + x[0,4,2,5] <= 1
 move_0_4_23_44: x[0,2,3,4] + x[0,4,4,5] <= 1
 move_0_4_24_00: x[0,0,0,5] + x[0,2,4,4] <= 1
 move_0_4_24_01: x[0,0,1,5] + x[0,2,4,4] <= 1
 move_0_4_24_02: x[0,0,2,5] + x[0,2,4,4] <= 1
 move_0_4_24_03: x[0,0,3,5] + x[0,2,4,4] <= 1
 move_0_4_24_10: x[0,1,0,5] + x[0,2,4,4] <= 1
 move_0_4_24_11: x[0,1,1,5] + x[0,2,4,4] <= 1
 move_0_4_24_12: x[0,1,2,5] + x[0,2,4,4] <= 1
 move_0_4_24_20: x[0,2,0,5] + x[0,2,4,4] <= 1
 move_0_4_24_21: x[0,2,1,5] + x[0,2,4,4] <= 1
 move_0_4_24_30: x[0,2,4,4] + x[0,3,0,5] <= 1
 move_0_4_24_31: x[0,2,4,4] + x[0,3,1,5] <= 1
 move_0_4_24_32: x[0,2,4,4] + x[0,3,2,5] <= 1
 move_0_4_24_40: x[0,2,4,4] + x[0,4,0,5] <= 1
 move_0_4_24_41: x[0,2,4,4] + x[0,4,1,5] <= 1
 move_0_4_24_42: x[0,2,4,4] + x[0,4,2,5] <= 1
 move_0_4_24_43: x[0,2,4,4] + x[0,4,3,5] <= 1
 move_0_4_30_00: x[0,0,0,5] + x[0,3,0,4] <= 1
 move_0_4_30_01: x[0,0,1,5] + x[0,3,0,4] <= 1
 move_0_4_30_02: x[0,0,2,5] + x[0,3,0,4] <= 1
 move_0_4_30_03: x[0,0,3,5] + x[0,3,0,4] <= 1
 move_0_4_30_04: x[0,0,4,5] + x[0,3,0,4] <= 1
 move_0_4_30_11: x[0,1,1,5] + x[0,3,0,4] <= 1
 move_0_4_30_12: x[0,1,2,5] + x[0,3,0,4] <= 1
 move_0_4_30_13: x[0,1,3,5] + x[0,3,0,4] <= 1
 move_0_4_30_14: x[0,1,4,5] + x[0,3,0,4] <= 1
 move_0_4_30_22: x[0,2,2,5] + x[0,3,0,4] <= 1
 move_0_4_30_23: x[0,2,3,5] + x[0,3,0,4] <= 1
 move_0_4_30_24: x[0,2,4,5] + x[0,3,0,4] <= 1
 move_0_4_30_33: x[0,3,0,4] + x[0,3,3,5] <= 1
 move_0_4_30_34: x[0,3,0,4] + x[0,3,4,5] <= 1
 move_0_4_30_42: x[0,3,0,4] + x[0,4,2,5] <= 1
 move_0_4_30_43: x[0,3,0,4] + x[0,4,3,5] <= 1
 move_0_4_30_44: x[0,3,0,4] + x[0,4,4,5] <= 1
 move_0_4_31_00: x[0,0,0,5] + x[0,3,1,4] <= 1
 move_0_4_31_01: x[0,0,1,5] + x[0,3,1,4] <= 1
 move_0_4_31_02: x[0,0,2,5] + x[0,3,1,4] <= 1
 move_0_4_31_03: x[0,0,3,5] + x[0,3,1,4] <= 1
 move_0_4_31_04: x[0,0,4,5] + x[0,3,1,4] <= 1
 move_0_4_31_10: x[0,1,0,5] + x[0,3,1,4] <= 1
 move_0_4_31_12: x[0,1,2,5] + x[0,3,1,4] <= 1
 move_0_4_31_13: x[0,1,3,5] + x[0,3,1,4] <= 1
 move_0_4_31_14: x[0,1,4,5] + x[0,3,1,4] <= 1
 move_0_4_31_23: x[0,2,3,5] + x[0,3,1,4] <= 1
 move_0_4_31_24: x[0,2,4,5] + x[0,3,1,4] <= 1
 move_0_4_31_34: x[0,3,1,4] + x[0,3,4,5] <= 1
 move_0_4_31_43: x[0,3,1,4] + x[0,4,3,5] <= 1
 move_0_4_31_44: x[0,3,1,4] + x[0,4,4,5] <= 1
 move_0_4_32_00: x[0,0,0,5] + x[0,3,2,4] <= 1
 move_0_4_32_01: x[0,0,1,5] + x[0,3,2,4] <= 1
 move_0_4_32_02: x[0,0,2,5] + x[0,3,2,4] <= 1
 move_0_4_32_03: x[0,0,3,5] + x[0,3,2,4] <= 1
 move_0_4_32_04: x[0,0,4,5] + x[0,3,2,4] <= 1
 move_0_4_32_10: x[0,1,0,5] + x[0,3,2,4] <= 1
 move_0_4_32_11: x[0,1,1,5] + x[0,3,2,4] <= 1
 move_0_4_32_13: x[0,1,3,5] + x[0,3,2,4] <= 1
 move_0_4_32_14: x[0,1,4,5] + x[0,3,2,4] <= 1
 move_0_4_32_20: x[0,2,0,5] + x[0,3,2,4] <= 1
 move_0_4_32_24: x[0,2,4,5] + x[0,3,2,4] <= 1
 move_0_4_32_40: x[0,3,2,4] + x[0,4,0,5] <= 1
 move_0_4_32_44: x[0,3,2,4] + x[0,4,4,5] <= 1
 move_0_4_33_00: x[0,0,0,5] + x[0,3,3,4] <= 1
 move_0_4_33_01: x[0,0,1,5] + x[0,3,3,4] <= 1
 move_0_4_33_02: x[0,0,2,5] + x[0,3,3,4] <= 1
 move_0_4_33_03: x[0,0,3,5] + x[0,3,3,4] <= 1
 move_0_4_33_04: x[0,0,4,5] + x[0,3,3,4] <= 1
 move_0_4_33_10: x[0,1,0,5] + x[0,3,3,4] <= 1
 move_0_4_33_11: x[0,1,1,5] + x[0,3,3,4] <= 1
 move_0_4_33_12: x[0,1,2,5] + x[0,3,3,4] <= 1
 move_0_4_33_14: x[0,1,4,5] + x[0,3,3,4] <= 1
 move_0_4_33_20: x[0,2,0,5] + x[0,3,3,4] <= 1
 move_0_4_33_21: x[0,2,1,5] + x[0,3,3,4] <= 1
 move_0_4_33_30: x[0,3,0,5] + x[0,3,3,4] <= 1
 move_0_4_33_40: x[0,3,3,4] + x[0,4,0,5] <= 1
 move_0_4_33_41: x[0,3,3,4] + x[0,4,1,5] <= 1
 move_0_4_34_00: x[0,0,0,5] + x[0,3,4,4] <= 1
 move_0_4_34_01: x[0,0,1,5] + x[0,3,4,4] <= 1
 move_0_4_34_02: x[0,0,2,5] + x[0,3,4,4] <= 1
 move_0_4_34_03: x[0,0,3,5] + x[0,3,4,4] <= 1
 move_0_4_34_04: x[0,0,4,5] + x[0,3,4,4] <= 1
 move_0_4_34_10: x[0,1,0,5] + x[0,3,4,4] <= 1
 move_0_4_34_11: x[0,1,1,5] + x[0,3,4,4] <= 1
 move_0_4_34_12: x[0,1,2,5] + x[0,3,4,4] <= 1
 move_0_4_34_13: x[0,1,3,5] + x[0,3,4,4] <= 1
 move_0_4_34_20: x[0,2,0,5] + x[0,3,4,4] <= 1
 move_0_4_34_21: x[0,2,1,5] + x[0,3,4,4] <= 1
 move_0_4_34_22: x[0,2,2,5] + x[0,3,4,4] <= 1
 move_0_4_34_30: x[0,3,0,5] + x[0,3,4,4] <= 1
 move_0_4_34_31: x[0,3,1,5] + x[0,3,4,4] <= 1
 move_0_4_34_40: x[0,3,4,4] + x[0,4,0,5] <= 1
 move_0_4_34_41: x[0,3,4,4] + x[0,4,1,5] <= 1
 move_0_4_34_42: x[0,3,4,4] + x[0,4,2,5] <= 1
 move_0_4_40_00: x[0,0,0,5] + x[0,4,0,4] <= 1
 move_0_4_40_01: x[0,0,1,5] + x[0,4,0,4] <= 1
 move_0_4_40_02: x[0,0,2,5] + x[0,4,0,4] <= 1
 move_0_4_40_03: x[0,0,3,5] + x[0,4,0,4] <= 1
 move_0_4_40_04: x[0,0,4,5] + x[0,4,0,4] <= 1
 move_0_4_40_10: x[0,1,0,5] + x[0,4,0,4] <= 1
 move_0_4_40_11: x[0,1,1,5] + x[0,4,0,4] <= 1
 move_0_4_40_12: x[0,1,2,5] + x[0,4,0,4] <= 1
 move_0_4_40_13: x[0,1,3,5] + x[0,4,0,4] <= 1
 move_0_4_40_14: x[0,1,4,5] + x[0,4,0,4] <= 1
 move_0_4_40_21: x[0,2,1,5] + x[0,4,0,4] <= 1
 move_0_4_40_22: x[0,2,2,5] + x[0,4,0,4] <= 1
 move_0_4_40_23: x[0,2,3,5] + x[0,4,0,4] <= 1
 move_0_4_40_24: x[0,2,4,5] + x[0,4,0,4] <= 1
 move_0_4_40_32: x[0,3,2,5] + x[0,4,0,4] <= 1
 move_0_4_40_33: x[0,3,3,5] + x[0,4,0,4] <= 1
 move_0_4_40_34: x[0,3,4,5] + x[0,4,0,4] <= 1
 move_0_4_40_43: x[0,4,0,4] + x[0,4,3,5] <= 1
 move_0_4_40_44: x[0,4,0,4] + x[0,4,4,5] <= 1
 move_0_4_41_00: x[0,0,0,5] + x[0,4,1,4] <= 1
 move_0_4_41_01: x[0,0,1,5] + x[0,4,1,4] <= 1
 move_0_4_41_02: x[0,0,2,5] + x[0,4,1,4] <= 1
 move_0_4_41_03: x[0,0,3,5] + x[0,4,1,4] <= 1
 move_0_4_41_04: x[0,0,4,5] + x[0,4,1,4] <= 1
 move_0_4_41_10: x[0,1,0,5] + x[0,4,1,4] <= 1
 move_0_4_41_11: x[0,1,1,5] + x[0,4,1,4] <= 1
 move_0_4_41_12: x[0,1,2,5] + x[0,4,1,4] <= 1
 move_0_4_41_13: x[0,1,3,5] + x[0,4,1,4] <= 1
 move_0_4_41_14: x[0,1,4,5] + x[0,4,1,4] <= 1
 move_0_4_41_20: x[0,2,0,5] + x[0,4,1,4] <= 1
 move_0_4_41_22: x[0,2,2,5] + x[0,4,1,4] <= 1
 move_0_4_41_23: x[0,2,3,5] + x[0,4,1,4] <= 1
 move_0_4_41_24: x[0,2,4,5] + x[0,4,1,4] <= 1
 move_0_4_41_33: x[0,3,3,5] + x[0,4,1,4] <= 1
 move_0_4_41_34: x[0,3,4,5] + x[0,4,1,4] <= 1
 move_0_4_41_44: x[0,4,1,4] + x[0,4,4,5] <= 1
 move_0_4_42_00: x[0,0,0,5] + x[0,4,2,4] <= 1
 move_0_4_42_01: x[0,0,1,5] + x[0,4,2,4] <= 1
 move_0_4_42_02: x[0,0,2,5] + x[0,4,2,4] <= 1
 move_0_4_42_03: x[0,0,3,5] + x[0,4,2,4] <= 1
 move_0_4_42_04: x[0,0,4,5] + x[0,4,2,4] <= 1
 move_0_4_42_10: x[0,1,0,5] + x[0,4,2,4] <= 1
 move_0_4_42_11: x[0,1,1,5] + x[0,4,2,4] <= 1
 move_0_4_42_12: x[0,1,2,5] + x[0,4,2,4] <= 1
 move_0_4_42_13: x[0,1,3,5] + x[0,4,2,4] <= 1
 move_0_4_42_14: x[0,1,4,5] + x[0,4,2,4] <= 1
 move_0_4_42_20: x[0,2,0,5] + x[0,4,2,4] <= 1
 move_0_4_42_21: x[0,2,1,5] + x[0,4,2,4] <= 1
 move_0_4_42_23: x[0,2,3,5] + x[0,4,2,4] <= 1
 move_0_4_42_24: x[0,2,4,5] + x[0,4,2,4] <= 1
 move_0_4_42_30: x[0,3,0,5] + x[0,4,2,4] <= 1
 move_0_4_42_34: x[0,3,4,5] + x[0,4,2,4] <= 1
 move_0_4_43_00: x[0,0,0,5] + x[0,4,3,4] <= 1
 move_0_4_43_01: x[0,0,1,5] + x[0,4,3,4] <= 1
 move_0_4_43_02: x[0,0,2,5] + x[0,4,3,4] <= 1
 move_0_4_43_03: x[0,0,3,5] + x[0,4,3,4] <= 1
 move_0_4_43_04: x[0,0,4,5] + x[0,4,3,4] <= 1
 move_0_4_43_10: x[0,1,0,5] + x[0,4,3,4] <= 1
 move_0_4_43_11: x[0,1,1,5] + x[0,4,3,4] <= 1
 move_0_4_43_12: x[0,1,2,5] + x[0,4,3,4] <= 1
 move_0_4_43_13: x[0,1,3,5] + x[0,4,3,4] <= 1
 move_0_4_43_14: x[0,1,4,5] + x[0,4,3,4] <= 1
 move_0_4_43_20: x[0,2,0,5] + x[0,4,3,4] <= 1
 move_0_4_43_21: x[0,2,1,5] + x[0,4,3,4] <= 1
 move_0_4_43_22: x[0,2,2,5] + x[0,4,3,4] <= 1
 move_0_4_43_24: x[0,2,4,5] + x[0,4,3,4] <= 1
 move_0_4_43_30: x[0,3,0,5] + x[0,4,3,4] <= 1
 move_0_4_43_31: x[0,3,1,5] + x[0,4,3,4] <= 1
 move_0_4_43_40: x[0,4,0,5] + x[0,4,3,4] <= 1
 move_0_4_44_00: x[0,0,0,5] + x[0,4,4,4] <= 1
 move_0_4_44_01: x[0,0,1,5] + x[0,4,4,4] <= 1
 move_0_4_44_02: x[0,0,2,5] + x[0,4,4,4] <= 1
 move_0_4_44_03: x[0,0,3,5] + x[0,4,4,4] <= 1
 move_0_4_44_04: x[0,0,4,5] + x[0,4,4,4] <= 1
 move_0_4_44_10: x[0,1,0,5] + x[0,4,4,4] <= 1
 move_0_4_44_11: x[0,1,1,5] + x[0,4,4,4] <= 1
 move_0_4_44_12: x[0,1,2,5] + x[0,4,4,4] <= 1
 move_0_4_44_13: x[0,1,3,5] + x[0,4,4,4] <= 1
 move_0_4_44_14: x[0,1,4,5] + x[0,4,4,4] <= 1
 move_0_4_44_20: x[0,2,0,5] + x[0,4,4,4] <= 1
 move_0_4_44_21: x[0,2,1,5] + x[0,4,4,4] <= 1
 move_0_4_44_22: x[0,2,2,5] + x[0,4,4,4] <= 1
 move_0_4_44_23: x[0,2,3,5] + x[0,4,4,4] <= 1
 move_0_4_44_30: x[0,3,0,5] + x[0,4,4,4] <= 1
 move_0_4_44_31: x[0,3,1,5] + x[0,4,4,4] <= 1
 move_0_4_44_32: x[0,3,2,5] + x[0,4,4,4] <= 1
 move_0_4_44_40: x[0,4,0,5] + x[0,4,4,4] <= 1
 move_0_4_44_41: x[0,4,1,5] + x[0,4,4,4] <= 1
 move_0_5_00_03: x[0,0,0,5] + x[0,0,3,6] <= 1
 move_0_5_00_04: x[0,0,0,5] + x[0,0,4,6] <= 1
 move_0_5_00_12: x[0,0,0,5] + x[0,1,2,6] <= 1
 move_0_5_00_13: x[0,0,0,5] + x[0,1,3,6] <= 1
 move_0_5_00_14: x[0,0,0,5] + x[0,1,4,6] <= 1
 move_0_5_00_21: x[0,0,0,5] + x[0,2,1,6] <= 1
 move_0_5_00_22: x[0,0,0,5] + x[0,2,2,6] <= 1
 move_0_5_00_23: x[0,0,0,5] + x[0,2,3,6] <= 1
 move_0_5_00_24: x[0,0,0,5] + x[0,2,4,6] <= 1
 move_0_5_00_30: x[0,0,0,5] + x[0,3,0,6] <= 1
 move_0_5_00_31: x[0,0,0,5] + x[0,3,1,6] <= 1
 move_0_5_00_32: x[0,0,0,5] + x[0,3,2,6] <= 1
 move_0_5_00_33: x[0,0,0,5] + x[0,3,3,6] <= 1
 move_0_5_00_34: x[0,0,0,5] + x[0,3,4,6] <= 1
 move_0_5_00_40: x[0,0,0,5] + x[0,4,0,6] <= 1
 move_0_5_00_41: x[0,0,0,5] + x[0,4,1,6] <= 1
 move_0_5_00_42: x[0,0,0,5] + x[0,4,2,6] <= 1
 move_0_5_00_43: x[0,0,0,5] + x[0,4,3,6] <= 1
 move_0_5_00_44: x[0,0,0,5] + x[0,4,4,6] <= 1
 move_0_5_01_04: x[0,0,1,5] + x[0,0,4,6] <= 1
 move_0_5_01_13: x[0,0,1,5] + x[0,1,3,6] <= 1
 move_0_5_01_14: x[0,0,1,5] + x[0,1,4,6] <= 1
 move_0_5_01_20: x[0,0,1,5] + x[0,2,0,6] <= 1
 move_0_5_01_22: x[0,0,1,5] + x[0,2,2,6] <= 1
 move_0_5_01_23: x[0,0,1,5] + x[0,2,3,6] <= 1
 move_0_5_01_24: x[0,0,1,5] + x[0,2,4,6] <= 1
 move_0_5_01_30: x[0,0,1,5] + x[0,3,0,6] <= 1
 move_0_5_01_31: x[0,0,1,5] + x[0,3,1,6] <= 1
 move_0_5_01_32: x[0,0,1,5] + x[0,3,2,6] <= 1
 move_0_5_01_33: x[0,0,1,5] + x[0,3,3,6] <= 1
 move_0_5_01_34: x[0,0,1,5] + x[0,3,4,6] <= 1
 move_0_5_01_40: x[0,0,1,5] + x[0,4,0,6] <= 1
 move_0_5_01_41: x[0,0,1,5] + x[0,4,1,6] <= 1
 move_0_5_01_42: x[0,0,1,5] + x[0,4,2,6] <= 1
 move_0_5_01_43: x[0,0,1,5] + x[0,4,3,6] <= 1
 move_0_5_01_44: x[0,0,1,5] + x[0,4,4,6] <= 1
 move_0_5_02_10: x[0,0,2,5] + x[0,1,0,6] <= 1
 move_0_5_02_14: x[0,0,2,5] + x[0,1,4,6] <= 1
 move_0_5_02_20: x[0,0,2,5] + x[0,2,0,6] <= 1
 move_0_5_02_21: x[0,0,2,5] + x[0,2,1,6] <= 1
 move_0_5_02_23: x[0,0,2,5] + x[0,2,3,6] <= 1
 move_0_5_02_24: x[0,0,2,5] + x[0,2,4,6] <= 1
 move_0_5_02_30: x[0,0,2,5] + x[0,3,0,6] <= 1
 move_0_5_02_31: x[0,0,2,5] + x[0,3,1,6] <= 1
 move_0_5_02_32: x[0,0,2,5] + x[0,3,2,6] <= 1
 move_0_5_02_33: x[0,0,2,5] + x[0,3,3,6] <= 1
 move_0_5_02_34: x[0,0,2,5] + x[0,3,4,6] <= 1
 move_0_5_02_40: x[0,0,2,5] + x[0,4,0,6] <= 1
 move_0_5_02_41: x[0,0,2,5] + x[0,4,1,6] <= 1
 move_0_5_02_42: x[0,0,2,5] + x[0,4,2,6] <= 1
 move_0_5_02_43: x[0,0,2,5] + x[0,4,3,6] <= 1
 move_0_5_02_44: x[0,0,2,5] + x[0,4,4,6] <= 1
 move_0_5_03_00: x[0,0,0,6] + x[0,0,3,5] <= 1
 move_0_5_03_10: x[0,0,3,5] + x[0,1,0,6] <= 1
 move_0_5_03_11: x[0,0,3,5] + x[0,1,1,6] <= 1
 move_0_5_03_20: x[0,0,3,5] + x[0,2,0,6] <= 1
 move_0_5_03_21: x[0,0,3,5] + x[0,2,1,6] <= 1
 move_0_5_03_22: x[0,0,3,5] + x[0,2,2,6] <= 1
 move_0_5_03_24: x[0,0,3,5] + x[0,2,4,6] <= 1
 move_0_5_03_30: x[0,0,3,5] + x[0,3,0,6] <= 1
 move_0_5_03_31: x[0,0,3,5] + x[0,3,1,6] <= 1
 move_0_5_03_32: x[0,0,3,5] + x[0,3,2,6] <= 1
 move_0_5_03_33: x[0,0,3,5] + x[0,3,3,6] <= 1
 move_0_5_03_34: x[0,0,3,5] + x[0,3,4,6] <= 1
 move_0_5_03_40: x[0,0,3,5] + x[0,4,0,6] <= 1
 move_0_5_03_41: x[0,0,3,5] + x[0,4,1,6] <= 1
 move_0_5_03_42: x[0,0,3,5] + x[0,4,2,6] <= 1
 move_0_5_03_43: x[0,0,3,5] + x[0,4,3,6] <= 1
 move_0_5_03_44: x[0,0,3,5] + x[0,4,4,6] <= 1
 move_0_5_04_00: x[0,0,0,6] + x[0,0,4,5] <= 1
 move_0_5_04_01: x[0,0,1,6] + x[0,0,4,5] <= 1
 move_0_5_04_10: x[0,0,4,5] + x[0,1,0,6] <= 1
 move_0_5_04_11: x[0,0,4,5] + x[0,1,1,6] <= 1
 move_0_5_04_12: x[0,0,4,5] + x[0,1,2,6] <= 1
 move_0_5_04_20: x[0,0,4,5] + x[0,2,0,6] <= 1
 move_0_5_04_21: x[0,0,4,5] + x[0,2,1,6] <= 1
 move_0_5_04_22: x[0,0,4,5] + x[0,2,2,6] <= 1
 move_0_5_04_23: x[0,0,4,5] + x[0,2,3,6] <= 1
 move_0_5_04_30: x[0,0,4,5] + x[0,3,0,6] <= 1
 move_0_5_04_31: x[0,0,4,5] + x[0,3,1,6] <= 1
 move_0_5_04_32: x[0,0,4,5] + x[0,3,2,6] <= 1
 move_0_5_04_33: x[0,0,4,5] + x[0,3,3,6] <= 1
 move_0_5_04_34: x[0,0,4,5] + x[0,3,4,6] <= 1
 move_0_5_04_40: x[0,0,4,5] + x[0,4,0,6] <= 1
 move_0_5_04_41: x[0,0,4,5] + x[0,4,1,6] <= 1
 move_0_5_04_42: x[0,0,4,5] + x[0,4,2,6] <= 1
 move_0_5_04_43: x[0,0,4,5] + x[0,4,3,6] <= 1
 move_0_5_04_44: x[0,0,4,5] + x[0,4,4,6] <= 1
 move_0_5_10_02: x[0,0,2,6] + x[0,1,0,5] <= 1
 move_0_5_10_03: x[0,0,3,6] + x[0,1,0,5] <= 1
 move_0_5_10_04: x[0,0,4,6] + x[0,1,0,5] <= 1
 move_0_5_10_13: x[0,1,0,5] + x[0,1,3,6] <= 1
 move_0_5_10_14: x[0,1,0,5] + x[0,1,4,6] <= 1
 move_0_5_10_22: x[0,1,0,5] + x[0,2,2,6] <= 1
 move_0_5_10_23: x[0,1,0,5] + x[0,2,3,6] <= 1
 move_0_5_10_24: x[0,1,0,5] + x[0,2,4,6] <= 1
 move_0_5_10_31: x[0,1,0,5] + x[0,3,1,6] <= 1
 move_0_5_10_32: x[0,1,0,5] + x[0,3,2,6] <= 1
 move_0_5_10_33: x[0,1,0,5] + x[0,3,3,6] <= 1
 move_0_5_10_34: x[0,1,0,5] + x[0,3,4,6] <= 1
 move_0_5_10_40: x[0,1,0,5] + x[0,4,0,6] <= 1
 move_0_5_10_41: x[0,1,0,5] + x[0,4,1,6] <= 1
 move_0_5_10_42: x[0,1,0,5] + x[0,4,2,6] <= 1
 move_0_5_10_43: x[0,1,0,5] + x[0,4,3,6] <= 1
 move_0_5_10_44: x[0,1,0,5] + x[0,4,4,6] <= 1
 move_0_5_11_03: x[0,0,3,6] + x[0,1,1,5] <= 1
 move_0_5_11_04: x[0,0,4,6] + x[0,1,1,5] <= 1
 move_0_5_11_14: x[0,1,1,5] + x[0,1,4,6] <= 1
 move_0_5_11_23: x[0,1,1,5] + x[0,2,3,6] <= 1
 move_0_5_11_24: x[0,1,1,5] + x[0,2,4,6] <= 1
 move_0_5_11_30: x[0,1,1,5] + x[0,3,0,6] <= 1
 move_0_5_11_32: x[0,1,1,5] + x[0,3,2,6] <= 1
 move_0_5_11_33: x[0,1,1,5] + x[0,3,3,6] <= 1
 move_0_5_11_34: x[0,1,1,5] + x[0,3,4,6] <= 1
 move_0_5_11_40: x[0,1,1,5] + x[0,4,0,6] <= 1
 move_0_5_11_41: x[0,1,1,5] + x[0,4,1,6] <= 1
 move_0_5_11_42: x[0,1,1,5] + x[0,4,2,6] <= 1
 move_0_5_11_43: x[0,1,1,5] + x[0,4,3,6] <= 1
 move_0_5_11_44: x[0,1,1,5] + x[0,4,4,6] <= 1
 move_0_5_12_00: x[0,0,0,6] + x[0,1,2,5] <= 1
 move_0_5_12_04: x[0,0,4,6] + x[0,1,2,5] <= 1
 move_0_5_12_20: x[0,1,2,5] + x[0,2,0,6] <= 1
 move_0_5_12_24: x[0,1,2,5] + x[0,2,4,6] <= 1
 move_0_5_12_30: x[0,1,2,5] + x[0,3,0,6] <= 1
 move_0_5_12_31: x[0,1,2,5] + x[0,3,1,6] <= 1
 move_0_5_12_33: x[0,1,2,5] + x[0,3,3,6] <= 1
 move_0_5_12_34: x[0,1,2,5] + x[0,3,4,6] <= 1
 move_0_5_12_40: x[0,1,2,5] + x[0,4,0,6] <= 1
 move_0_5_12_41: x[0,1,2,5] + x[0,4,1,6] <= 1
 move_0_5_12_42: x[0,1,2,5] + x[0,4,2,6] <= 1
 move_0_5_12_43: x[0,1,2,5] + x[0,4,3,6] <= 1
 move_0_5_12_44: x[0,1,2,5] + x[0,4,4,6] <= 1
 move_0_5_13_00: x[0,0,0,6] + x[0,1,3,5] <= 1
 move_0_5_13_01: x[0,0,1,6] + x[0,1,3,5] <= 1
 move_0_5_13_10: x[0,1,0,6] + x[0,1,3,5] <= 1
 move_0_5_13_20: x[0,1,3,5] + x[0,2,0,6] <= 1
 move_0_5_13_21: x[0,1,3,5] + x[0,2,1,6] <= 1
 move_0_5_13_30: x[0,1,3,5] + x[0,3,0,6] <= 1
 move_0_5_13_31: x[0,1,3,5] + x[0,3,1,6] <= 1
 move_0_5_13_32: x[0,1,3,5] + x[0,3,2,6] <= 1
 move_0_5_13_34: x[0,1,3,5] + x[0,3,4,6] <= 1
 move_0_5_13_40: x[0,1,3,5] + x[0,4,0,6] <= 1
 move_0_5_13_41: x[0,1,3,5] + x[0,4,1,6] <= 1
 move_0_5_13_42: x[0,1,3,5] + x[0,4,2,6] <= 1
 move_0_5_13_43: x[0,1,3,5] + x[0,4,3,6] <= 1
 move_0_5_13_44: x[0,1,3,5] + x[0,4,4,6] <= 1
 move_0_5_14_00: x[0,0,0,6] + x[0,1,4,5] <= 1
 move_0_5_14_01: x[0,0,1,6] + x[0,1,4,5] <= 1
 move_0_5_14_02: x[0,0,2,6] + x[0,1,4,5] <= 1
 move_0_5_14_10: x[0,1,0,6] + x[0,1,4,5] <= 1
 move_0_5_14_11: x[0,1,1,6] + x[0,1,4,5] <= 1
 move_0_5_14_20: x[0,1,4,5] + x[0,2,0,6] <= 1
 move_0_5_14_21: x[0,1,4,5] + x[0,2,1,6] <= 1
 move_0_5_14_22: x[0,1,4,5] + x[0,2,2,6] <= 1
 move_0_5_14_30: x[0,1,4,5] + x[0,3,0,6] <= 1
 move_0_5_14_31: x[0,1,4,5] + x[0,3,1,6] <= 1
 move_0_5_14_32: x[0,1,4,5] + x[0,3,2,6] <= 1
 move_0_5_14_33: x[0,1,4,5] + x[0,3,3,6] <= 1
 move_0_5_14_40: x[0,1,4,5] + x[0,4,0,6] <= 1
 move_0_5_14_41: x[0,1,4,5] + x[0,4,1,6] <= 1
 move_0_5_14_42: x[0,1,4,5] + x[0,4,2,6] <= 1
 move_0_5_14_43: x[0,1,4,5] + x[0,4,3,6] <= 1
 move_0_5_14_44: x[0,1,4,5] + x[0,4,4,6] <= 1
 move_0_5_20_01: x[0,0,1,6] + x[0,2,0,5] <= 1
 move_0_5_20_02: x[0,0,2,6] + x[0,2,0,5] <= 1
 move_0_5_20_03: x[0,0,3,6] + x[0,2,0,5] <= 1
 move_0_5_20_04: x[0,0,4,6] + x[0,2,0,5] <= 1
 move_0_5_20_12: x[0,1,2,6] + x[0,2,0,5] <= 1
 move_0_5_20_13: x[0,1,3,6] + x[0,2,0,5] <= 1
 move_0_5_20_14: x[0,1,4,6] + x[0,2,0,5] <= 1
 move_0_5_20_23: x[0,2,0,5] + x[0,2,3,6] <= 1
 move_0_5_20_24: x[0,2,0,5] + x[0,2,4,6] <= 1
 move_0_5_20_32: x[0,2,0,5] + x[0,3,2,6] <= 1
 move_0_5_20_33: x[0,2,0,5] + x[0,3,3,6] <= 1
 move_0_5_20_34: x[0,2,0,5] + x[0,3,4,6] <= 1
 move_0_5_20_41: x[0,2,0,5] + x[0,4,1,6] <= 1
 move_0_5_20_42: x[0,2,0,5] + x[0,4,2,6] <= 1
 move_0_5_20_43: x[0,2,0,5] + x[0,4,3,6] <= 1
 move_0_5_20_44: x[0,2,0,5] + x[0,4,4,6] <= 1
 move_0_5_21_00: x[0,0,0,6] + x[0,2,1,5] <= 1
 move_0_5_21_02: x[0,0,2,6] + x[0,2,1,5] <= 1
 move_0_5_21_03: x[0,0,3,6] + x[0,2,1,5] <= 1
 move_0_5_21_04: x[0,0,4,6] + x[0,2,1,5] <= 1
 move_0_5_21_13: x[0,1,3,6] + x[0,2,1,5] <= 1
 move_0_5_21_14: x[0,1,4,6] + x[0,2,1,5] <= 1
 move_0_5_21_24: x[0,2,1,5] + x[0,2,4,6] <= 1
 move_0_5_21_33: x[0,2,1,5] + x[0,3,3,6] <= 1
 move_0_5_21_34: x[0,2,1,5] + x[0,3,4,6] <= 1
 move_0_5_21_40: x[0,2,1,5] + x[0,4,0,6] <= 1
 move_0_5_21_42: x[0,2,1,5] + x[0,4,2,6] <= 1
 move_0_5_21_43: x[0,2,1,5] + x[0,4,3,6] <= 1
 move_0_5_21_44: x[0,2,1,5] + x[0,4,4,6] <= 1
 move_0_5_22_00: x[0,0,0,6] + x[0,2,2,5] <= 1
 move_0_5_22_01: x[0,0,1,6] + x[0,2,2,5] <= 1
 move_0_5_22_03: x[0,0,3,6] + x[0,2,2,5] <= 1
 move_0_5_22_04: x[0,0,4,6] + x[0,2,2,5] <= 1
 move_0_5_22_10: x[0,1,0,6] + x[0,2,2,5] <= 1
 move_0_5_22_14: x[0,1,4,6] + x[0,2,2,5] <= 1
 move_0_5_22_30: x[0,2,2,5] + x[0,3,0,6] <= 1
 move_0_5_22_34: x[0,2,2,5] + x[0,3,4,6] <= 1
 move_0_5_22_40: x[0,2,2,5] + x[0,4,0,6] <= 1
 move_0_5_22_41: x[0,2,2,5] + x[0,4,1,6] <= 1
 move_0_5_22_43: x[0,2,2,5] + x[0,4,3,6] <= 1
 move_0_5_22_44: x[0,2,2,5] + x[0,4,4,6] <= 1
 move_0_5_23_00: x[0,0,0,6] + x[0,2,3,5] <= 1
 move_0_5_23_01: x[0,0,1,6] + x[0,2,3,5] <= 1
 move_0_5_23_02: x[0,0,2,6] + x[0,2,3,5] <= 1
 move_0_5_23_04: x[0,0,4,6] + x[0,2,3,5] <= 1
 move_0_5_23_10: x[0,1,0,6] + x[0,2,3,5] <= 1
 move_0_5_23_11: x[0,1,1,6] + x[0,2,3,5] <= 1
 move_0_5_23_20: x[0,2,0,6] + x[0,2,3,5] <= 1
 move_0_5_23_30: x[0,2,3,5] + x[0,3,0,6] <= 1
 move_0_5_23_31: x[0,2,3,5] + x[0,3,1,6] <= 1
 move_0_5_23_40: x[0,2,3,5] + x[0,4,0,6] <= 1
 move_0_5_23_41: x[0,2,3,5] + x[0,4,1,6] <= 1
 move_0_5_23_42: x[0,2,3,5] + x[0,4,2,6] <= 1
 move_0_5_23_44: x[0,2,3,5] + x[0,4,4,6] <= 1
 move_0_5_24_00: x[0,0,0,6] + x[0,2,4,5] <= 1
 move_0_5_24_01: x[0,0,1,6] + x[0,2,4,5] <= 1
 move_0_5_24_02: x[0,0,2,6] + x[0,2,4,5] <= 1
 move_0_5_24_03: x[0,0,3,6] + x[0,2,4,5] <= 1
 move_0_5_24_10: x[0,1,0,6] + x[0,2,4,5] <= 1
 move_0_5_24_11: x[0,1,1,6] + x[0,2,4,5] <= 1
 move_0_5_24_12: x[0,1,2,6] + x[0,2,4,5] <= 1
 move_0_5_24_20: x[0,2,0,6] + x[0,2,4,5] <= 1
 move_0_5_24_21: x[0,2,1,6] + x[0,2,4,5] <= 1
 move_0_5_24_30: x[0,2,4,5] + x[0,3,0,6] <= 1
 move_0_5_24_31: x[0,2,4,5] + x[0,3,1,6] <= 1
 move_0_5_24_32: x[0,2,4,5] + x[0,3,2,6] <= 1
 move_0_5_24_40: x[0,2,4,5] + x[0,4,0,6] <= 1
 move_0_5_24_41: x[0,2,4,5] + x[0,4,1,6] <= 1
 move_0_5_24_42: x[0,2,4,5] + x[0,4,2,6] <= 1
 move_0_5_24_43: x[0,2,4,5] + x[0,4,3,6] <= 1
 move_0_5_30_00: x[0,0,0,6] + x[0,3,0,5] <= 1
 move_0_5_30_01: x[0,0,1,6] + x[0,3,0,5] <= 1
 move_0_5_30_02: x[0,0,2,6] + x[0,3,0,5] <= 1
 move_0_5_30_03: x[0,0,3,6] + x[0,3,0,5] <= 1
 move_0_5_30_04: x[0,0,4,6] + x[0,3,0,5] <= 1
 move_0_5_30_11: x[0,1,1,6] + x[0,3,0,5] <= 1
 move_0_5_30_12: x[0,1,2,6] + x[0,3,0,5] <= 1
 move_0_5_30_13: x[0,1,3,6] + x[0,3,0,5] <= 1
 move_0_5_30_14: x[0,1,4,6] + x[0,3,0,5] <= 1
 move_0_5_30_22: x[0,2,2,6] + x[0,3,0,5] <= 1
 move_0_5_30_23: x[0,2,3,6] + x[0,3,0,5] <= 1
 move_0_5_30_24: x[0,2,4,6] + x[0,3,0,5] <= 1
 move_0_5_30_33: x[0,3,0,5] + x[0,3,3,6] <= 1
 move_0_5_30_34: x[0,3,0,5] + x[0,3,4,6] <= 1
 move_0_5_30_42: x[0,3,0,5] + x[0,4,2,6] <= 1
 move_0_5_30_43: x[0,3,0,5] + x[0,4,3,6] <= 1
 move_0_5_30_44: x[0,3,0,5] + x[0,4,4,6] <= 1
 move_0_5_31_00: x[0,0,0,6] + x[0,3,1,5] <= 1
 move_0_5_31_01: x[0,0,1,6] + x[0,3,1,5] <= 1
 move_0_5_31_02: x[0,0,2,6] + x[0,3,1,5] <= 1
 move_0_5_31_03: x[0,0,3,6] + x[0,3,1,5] <= 1
 move_0_5_31_04: x[0,0,4,6] + x[0,3,1,5] <= 1
 move_0_5_31_10: x[0,1,0,6] + x[0,3,1,5] <= 1
 move_0_5_31_12: x[0,1,2,6] + x[0,3,1,5] <= 1
 move_0_5_31_13: x[0,1,3,6] + x[0,3,1,5] <= 1
 move_0_5_31_14: x[0,1,4,6] + x[0,3,1,5] <= 1
 move_0_5_31_23: x[0,2,3,6] + x[0,3,1,5] <= 1
 move_0_5_31_24: x[0,2,4,6] + x[0,3,1,5] <= 1
 move_0_5_31_34: x[0,3,1,5] + x[0,3,4,6] <= 1
 move_0_5_31_43: x[0,3,1,5] + x[0,4,3,6] <= 1
 move_0_5_31_44: x[0,3,1,5] + x[0,4,4,6] <= 1
 move_0_5_32_00: x[0,0,0,6] + x[0,3,2,5] <= 1
 move_0_5_32_01: x[0,0,1,6] + x[0,3,2,5] <= 1
 move_0_5_32_02: x[0,0,2,6] + x[0,3,2,5] <= 1
 move_0_5_32_03: x[0,0,3,6] + x[0,3,2,5] <= 1
 move_0_5_32_04: x[0,0,4,6] + x[0,3,2,5] <= 1
 move_0_5_32_10: x[0,1,0,6] + x[0,3,2,5] <= 1
 move_0_5_32_11: x[0,1,1,6] + x[0,3,2,5] <= 1
 move_0_5_32_13: x[0,1,3,6] + x[0,3,2,5] <= 1
 move_0_5_32_14: x[0,1,4,6] + x[0,3,2,5] <= 1
 move_0_5_32_20: x[0,2,0,6] + x[0,3,2,5] <= 1
 move_0_5_32_24: x[0,2,4,6] + x[0,3,2,5] <= 1
 move_0_5_32_40: x[0,3,2,5] + x[0,4,0,6] <= 1
 move_0_5_32_44: x[0,3,2,5] + x[0,4,4,6] <= 1
 move_0_5_33_00: x[0,0,0,6] + x[0,3,3,5] <= 1
 move_0_5_33_01: x[0,0,1,6] + x[0,3,3,5] <= 1
 move_0_5_33_02: x[0,0,2,6] + x[0,3,3,5] <= 1
 move_0_5_33_03: x[0,0,3,6] + x[0,3,3,5] <= 1
 move_0_5_33_04: x[0,0,4,6] + x[0,3,3,5] <= 1
 move_0_5_33_10: x[0,1,0,6] + x[0,3,3,5] <= 1
 move_0_5_33_11: x[0,1,1,6] + x[0,3,3,5] <= 1
 move_0_5_33_12: x[0,1,2,6] + x[0,3,3,5] <= 1
 move_0_5_33_14: x[0,1,4,6] + x[0,3,3,5] <= 1
 move_0_5_33_20: x[0,2,0,6] + x[0,3,3,5] <= 1
 move_0_5_33_21: x[0,2,1,6] + x[0,3,3,5] <= 1
 move_0_5_33_30: x[0,3,0,6] + x[0,3,3,5] <= 1
 move_0_5_33_40: x[0,3,3,5] + x[0,4,0,6] <= 1
 move_0_5_33_41: x[0,3,3,5] + x[0,4,1,6] <= 1
 move_0_5_34_00: x[0,0,0,6] + x[0,3,4,5] <= 1
 move_0_5_34_01: x[0,0,1,6] + x[0,3,4,5] <= 1
 move_0_5_34_02: x[0,0,2,6] + x[0,3,4,5] <= 1
 move_0_5_34_03: x[0,0,3,6] + x[0,3,4,5] <= 1
 move_0_5_34_04: x[0,0,4,6] + x[0,3,4,5] <= 1
 move_0_5_34_10: x[0,1,0,6] + x[0,3,4,5] <= 1
 move_0_5_34_11: x[0,1,1,6] + x[0,3,4,5] <= 1
 move_0_5_34_12: x[0,1,2,6] + x[0,3,4,5] <= 1
 move_0_5_34_13: x[0,1,3,6] + x[0,3,4,5] <= 1
 move_0_5_34_20: x[0,2,0,6] + x[0,3,4,5] <= 1
 move_0_5_34_21: x[0,2,1,6] + x[0,3,4,5] <= 1
 move_0_5_34_22: x[0,2,2,6] + x[0,3,4,5] <= 1
 move_0_5_34_30: x[0,3,0,6] + x[0,3,4,5] <= 1
 move_0_5_34_31: x[0,3,1,6] + x[0,3,4,5] <= 1
 move_0_5_34_40: x[0,3,4,5] + x[0,4,0,6] <= 1
 move_0_5_34_41: x[0,3,4,5] + x[0,4,1,6] <= 1
 move_0_5_34_42: x[0,3,4,5] + x[0,4,2,6] <= 1
 move_0_5_40_00: x[0,0,0,6] + x[0,4,0,5] <= 1
 move_0_5_40_01: x[0,0,1,6] + x[0,4,0,5] <= 1
 move_0_5_40_02: x[0,0,2,6] + x[0,4,0,5] <= 1
 move_0_5_40_03: x[0,0,3,6] + x[0,4,0,5] <= 1
 move_0_5_40_04: x[0,0,4,6] + x[0,4,0,5] <= 1
 move_0_5_40_10: x[0,1,0,6] + x[0,4,0,5] <= 1
 move_0_5_40_11: x[0,1,1,6] + x[0,4,0,5] <= 1
 move_0_5_40_12: x[0,1,2,6] + x[0,4,0,5] <= 1
 move_0_5_40_13: x[0,1,3,6] + x[0,4,0,5] <= 1
 move_0_5_40_14: x[0,1,4,6] + x[0,4,0,5] <= 1
 move_0_5_40_21: x[0,2,1,6] + x[0,4,0,5] <= 1
 move_0_5_40_22: x[0,2,2,6] + x[0,4,0,5] <= 1
 move_0_5_40_23: x[0,2,3,6] + x[0,4,0,5] <= 1
 move_0_5_40_24: x[0,2,4,6] + x[0,4,0,5] <= 1
 move_0_5_40_32: x[0,3,2,6] + x[0,4,0,5] <= 1
 move_0_5_40_33: x[0,3,3,6] + x[0,4,0,5] <= 1
 move_0_5_40_34: x[0,3,4,6] + x[0,4,0,5] <= 1
 move_0_5_40_43: x[0,4,0,5] + x[0,4,3,6] <= 1
 move_0_5_40_44: x[0,4,0,5] + x[0,4,4,6] <= 1
 move_0_5_41_00: x[0,0,0,6] + x[0,4,1,5] <= 1
 move_0_5_41_01: x[0,0,1,6] + x[0,4,1,5] <= 1
 move_0_5_41_02: x[0,0,2,6] + x[0,4,1,5] <= 1
 move_0_5_41_03: x[0,0,3,6] + x[0,4,1,5] <= 1
 move_0_5_41_04: x[0,0,4,6] + x[0,4,1,5] <= 1
 move_0_5_41_10: x[0,1,0,6] + x[0,4,1,5] <= 1
 move_0_5_41_11: x[0,1,1,6] + x[0,4,1,5] <= 1
 move_0_5_41_12: x[0,1,2,6] + x[0,4,1,5] <= 1
 move_0_5_41_13: x[0,1,3,6] + x[0,4,1,5] <= 1
 move_0_5_41_14: x[0,1,4,6] + x[0,4,1,5] <= 1
 move_0_5_41_20: x[0,2,0,6] + x[0,4,1,5] <= 1
 move_0_5_41_22: x[0,2,2,6] + x[0,4,1,5] <= 1
 move_0_5_41_23: x[0,2,3,6] + x[0,4,1,5] <= 1
 move_0_5_41_24: x[0,2,4,6] + x[0,4,1,5] <= 1
 move_0_5_41_33: x[0,3,3,6] + x[0,4,1,5] <= 1
 move_0_5_41_34: x[0,3,4,6] + x[0,4,1,5] <= 1
 move_0_5_41_44: x[0,4,1,5] + x[0,4,4,6] <= 1
 move_0_5_42_00: x[0,0,0,6] + x[0,4,2,5] <= 1
 move_0_5_42_01: x[0,0,1,6] + x[0,4,2,5] <= 1
 move_0_5_42_02: x[0,0,2,6] + x[0,4,2,5] <= 1
 move_0_5_42_03: x[0,0,3,6] + x[0,4,2,5] <= 1
 move_0_5_42_04: x[0,0,4,6] + x[0,4,2,5] <= 1
 move_0_5_42_10: x[0,1,0,6] + x[0,4,2,5] <= 1
 move_0_5_42_11: x[0,1,1,6] + x[0,4,2,5] <= 1
 move_0_5_42_12: x[0,1,2,6] + x[0,4,2,5] <= 1
 move_0_5_42_13: x[0,1,3,6] + x[0,4,2,5] <= 1
 move_0_5_42_14: x[0,1,4,6] + x[0,4,2,5] <= 1
 move_0_5_42_20: x[0,2,0,6] + x[0,4,2,5] <= 1
 move_0_5_42_21: x[0,2,1,6] + x[0,4,2,5] <= 1
 move_0_5_42_23: x[0,2,3,6] + x[0,4,2,5] <= 1
 move_0_5_42_24: x[0,2,4,6] + x[0,4,2,5] <= 1
 move_0_5_42_30: x[0,3,0,6] + x[0,4,2,5] <= 1
 move_0_5_42_34: x[0,3,4,6] + x[0,4,2,5] <= 1
 move_0_5_43_00: x[0,0,0,6] + x[0,4,3,5] <= 1
 move_0_5_43_01: x[0,0,1,6] + x[0,4,3,5] <= 1
 move_0_5_43_02: x[0,0,2,6] + x[0,4,3,5] <= 1
 move_0_5_43_03: x[0,0,3,6] + x[0,4,3,5] <= 1
 move_0_5_43_04: x[0,0,4,6] + x[0,4,3,5] <= 1
 move_0_5_43_10: x[0,1,0,6] + x[0,4,3,5] <= 1
 move_0_5_43_11: x[0,1,1,6] + x[0,4,3,5] <= 1
 move_0_5_43_12: x[0,1,2,6] + x[0,4,3,5] <= 1
 move_0_5_43_13: x[0,1,3,6] + x[0,4,3,5] <= 1
 move_0_5_43_14: x[0,1,4,6] + x[0,4,3,5] <= 1
 move_0_5_43_20: x[0,2,0,6] + x[0,4,3,5] <= 1
 move_0_5_43_21: x[0,2,1,6] + x[0,4,3,5] <= 1
 move_0_5_43_22: x[0,2,2,6] + x[0,4,3,5] <= 1
 move_0_5_43_24: x[0,2,4,6] + x[0,4,3,5] <= 1
 move_0_5_43_30: x[0,3,0,6] + x[0,4,3,5] <= 1
 move_0_5_43_31: x[0,3,1,6] + x[0,4,3,5] <= 1
 move_0_5_43_40: x[0,4,0,6] + x[0,4,3,5] <= 1
 move_0_5_44_00: x[0,0,0,6] + x[0,4,4,5] <= 1
 move_0_5_44_01: x[0,0,1,6] + x[0,4,4,5] <= 1
 move_0_5_44_02: x[0,0,2,6] + x[0,4,4,5] <= 1
 move_0_5_44_03: x[0,0,3,6] + x[0,4,4,5] <= 1
 move_0_5_44_04: x[0,0,4,6] + x[0,4,4,5] <= 1
 move_0_5_44_10: x[0,1,0,6] + x[0,4,4,5] <= 1
 move_0_5_44_11: x[0,1,1,6] + x[0,4,4,5] <= 1
 move_0_5_44_12: x[0,1,2,6] + x[0,4,4,5] <= 1
 move_0_5_44_13: x[0,1,3,6] + x[0,4,4,5] <= 1
 move_0_5_44_14: x[0,1,4,6] + x[0,4,4,5] <= 1
 move_0_5_44_20: x[0,2,0,6] + x[0,4,4,5] <= 1
 move_0_5_44_21: x[0,2,1,6] + x[0,4,4,5] <= 1
 move_0_5_44_22: x[0,2,2,6] + x[0,4,4,5] <= 1
 move_0_5_44_23: x[0,2,3,6] + x[0,4,4,5] <= 1
 move_0_5_44_30: x[0,3,0,6] + x[0,4,4,5] <= 1
 move_0_5_44_31: x[0,3,1,6] + x[0,4,4,5] <= 1
 move_0_5_44_32: x[0,3,2,6] + x[0,4,4,5] <= 1
 move_0_5_44_40: x[0,4,0,6] + x[0,4,4,5] <= 1
 move_0_5_44_41: x[0,4,1,6] + x[0,4,4,5] <= 1
 move_0_6_00_03: x[0,0,0,6] + x[0,0,3,7] <= 1
 move_0_6_00_04: x[0,0,0,6] + x[0,0,4,7] <= 1
 move_0_6_00_12: x[0,0,0,6] + x[0,1,2,7] <= 1
 move_0_6_00_13: x[0,0,0,6] + x[0,1,3,7] <= 1
 move_0_6_00_14: x[0,0,0,6] + x[0,1,4,7] <= 1
 move_0_6_00_21: x[0,0,0,6] + x[0,2,1,7] <= 1
 move_0_6_00_22: x[0,0,0,6] + x[0,2,2,7] <= 1
 move_0_6_00_23: x[0,0,0,6] + x[0,2,3,7] <= 1
 move_0_6_00_24: x[0,0,0,6] + x[0,2,4,7] <= 1
 move_0_6_00_30: x[0,0,0,6] + x[0,3,0,7] <= 1
 move_0_6_00_31: x[0,0,0,6] + x[0,3,1,7] <= 1
 move_0_6_00_32: x[0,0,0,6] + x[0,3,2,7] <= 1
 move_0_6_00_33: x[0,0,0,6] + x[0,3,3,7] <= 1
 move_0_6_00_34: x[0,0,0,6] + x[0,3,4,7] <= 1
 move_0_6_00_40: x[0,0,0,6] + x[0,4,0,7] <= 1
 move_0_6_00_41: x[0,0,0,6] + x[0,4,1,7] <= 1
 move_0_6_00_42: x[0,0,0,6] + x[0,4,2,7] <= 1
 move_0_6_00_43: x[0,0,0,6] + x[0,4,3,7] <= 1
 move_0_6_00_44: x[0,0,0,6] + x[0,4,4,7] <= 1
 move_0_6_01_04: x[0,0,1,6] + x[0,0,4,7] <= 1
 move_0_6_01_13: x[0,0,1,6] + x[0,1,3,7] <= 1
 move_0_6_01_14: x[0,0,1,6] + x[0,1,4,7] <= 1
 move_0_6_01_20: x[0,0,1,6] + x[0,2,0,7] <= 1
 move_0_6_01_22: x[0,0,1,6] + x[0,2,2,7] <= 1
 move_0_6_01_23: x[0,0,1,6] + x[0,2,3,7] <= 1
 move_0_6_01_24: x[0,0,1,6] + x[0,2,4,7] <= 1
 move_0_6_01_30: x[0,0,1,6] + x[0,3,0,7] <= 1
 move_0_6_01_31: x[0,0,1,6] + x[0,3,1,7] <= 1
 move_0_6_01_32: x[0,0,1,6] + x[0,3,2,7] <= 1
 move_0_6_01_33: x[0,0,1,6] + x[0,3,3,7] <= 1
 move_0_6_01_34: x[0,0,1,6] + x[0,3,4,7] <= 1
 move_0_6_01_40: x[0,0,1,6] + x[0,4,0,7] <= 1
 move_0_6_01_41: x[0,0,1,6] + x[0,4,1,7] <= 1
 move_0_6_01_42: x[0,0,1,6] + x[0,4,2,7] <= 1
 move_0_6_01_43: x[0,0,1,6] + x[0,4,3,7] <= 1
 move_0_6_01_44: x[0,0,1,6] + x[0,4,4,7] <= 1
 move_0_6_02_10: x[0,0,2,6] + x[0,1,0,7] <= 1
 move_0_6_02_14: x[0,0,2,6] + x[0,1,4,7] <= 1
 move_0_6_02_20: x[0,0,2,6] + x[0,2,0,7] <= 1
 move_0_6_02_21: x[0,0,2,6] + x[0,2,1,7] <= 1
 move_0_6_02_23: x[0,0,2,6] + x[0,2,3,7] <= 1
 move_0_6_02_24: x[0,0,2,6] + x[0,2,4,7] <= 1
 move_0_6_02_30: x[0,0,2,6] + x[0,3,0,7] <= 1
 move_0_6_02_31: x[0,0,2,6] + x[0,3,1,7] <= 1
 move_0_6_02_32: x[0,0,2,6] + x[0,3,2,7] <= 1
 move_0_6_02_33: x[0,0,2,6] + x[0,3,3,7] <= 1
 move_0_6_02_34: x[0,0,2,6] + x[0,3,4,7] <= 1
 move_0_6_02_40: x[0,0,2,6] + x[0,4,0,7] <= 1
 move_0_6_02_41: x[0,0,2,6] + x[0,4,1,7] <= 1
 move_0_6_02_42: x[0,0,2,6] + x[0,4,2,7] <= 1
 move_0_6_02_43: x[0,0,2,6] + x[0,4,3,7] <= 1
 move_0_6_02_44: x[0,0,2,6] + x[0,4,4,7] <= 1
 move_0_6_03_00: x[0,0,0,7] + x[0,0,3,6] <= 1
 move_0_6_03_10: x[0,0,3,6] + x[0,1,0,7] <= 1
 move_0_6_03_11: x[0,0,3,6] + x[0,1,1,7] <= 1
 move_0_6_03_20: x[0,0,3,6] + x[0,2,0,7] <= 1
 move_0_6_03_21: x[0,0,3,6] + x[0,2,1,7] <= 1
 move_0_6_03_22: x[0,0,3,6] + x[0,2,2,7] <= 1
 move_0_6_03_24: x[0,0,3,6] + x[0,2,4,7] <= 1
 move_0_6_03_30: x[0,0,3,6] + x[0,3,0,7] <= 1
 move_0_6_03_31: x[0,0,3,6] + x[0,3,1,7] <= 1
 move_0_6_03_32: x[0,0,3,6] + x[0,3,2,7] <= 1
 move_0_6_03_33: x[0,0,3,6] + x[0,3,3,7] <= 1
 move_0_6_03_34: x[0,0,3,6] + x[0,3,4,7] <= 1
 move_0_6_03_40: x[0,0,3,6] + x[0,4,0,7] <= 1
 move_0_6_03_41: x[0,0,3,6] + x[0,4,1,7] <= 1
 move_0_6_03_42: x[0,0,3,6] + x[0,4,2,7] <= 1
 move_0_6_03_43: x[0,0,3,6] + x[0,4,3,7] <= 1
 move_0_6_03_44: x[0,0,3,6] + x[0,4,4,7] <= 1
 move_0_6_04_00: x[0,0,0,7] + x[0,0,4,6] <= 1
 move_0_6_04_01: x[0,0,1,7] + x[0,0,4,6] <= 1
 move_0_6_04_10: x[0,0,4,6] + x[0,1,0,7] <= 1
 move_0_6_04_11: x[0,0,4,6] + x[0,1,1,7] <= 1
 move_0_6_04_12: x[0,0,4,6] + x[0,1,2,7] <= 1
 move_0_6_04_20: x[0,0,4,6] + x[0,2,0,7] <= 1
 move_0_6_04_21: x[0,0,4,6] + x[0,2,1,7] <= 1
 move_0_6_04_22: x[0,0,4,6] + x[0,2,2,7] <= 1
 move_0_6_04_23: x[0,0,4,6] + x[0,2,3,7] <= 1
 move_0_6_04_30: x[0,0,4,6] + x[0,3,0,7] <= 1
 move_0_6_04_31: x[0,0,4,6] + x[0,3,1,7] <= 1
 move_0_6_04_32: x[0,0,4,6] + x[0,3,2,7] <= 1
 move_0_6_04_33: x[0,0,4,6] + x[0,3,3,7] <= 1
 move_0_6_04_34: x[0,0,4,6] + x[0,3,4,7] <= 1
 move_0_6_04_40: x[0,0,4,6] + x[0,4,0,7] <= 1
 move_0_6_04_41: x[0,0,4,6] + x[0,4,1,7] <= 1
 move_0_6_04_42: x[0,0,4,6] + x[0,4,2,7] <= 1
 move_0_6_04_43: x[0,0,4,6] + x[0,4,3,7] <= 1
 move_0_6_04_44: x[0,0,4,6] + x[0,4,4,7] <= 1
 move_0_6_10_02: x[0,0,2,7] + x[0,1,0,6] <= 1
 move_0_6_10_03: x[0,0,3,7] + x[0,1,0,6] <= 1
 move_0_6_10_04: x[0,0,4,7] + x[0,1,0,6] <= 1
 move_0_6_10_13: x[0,1,0,6] + x[0,1,3,7] <= 1
 move_0_6_10_14: x[0,1,0,6] + x[0,1,4,7] <= 1
 move_0_6_10_22: x[0,1,0,6] + x[0,2,2,7] <= 1
 move_0_6_10_23: x[0,1,0,6] + x[0,2,3,7] <= 1
 move_0_6_10_24: x[0,1,0,6] + x[0,2,4,7] <= 1
 move_0_6_10_31: x[0,1,0,6] + x[0,3,1,7] <= 1
 move_0_6_10_32: x[0,1,0,6] + x[0,3,2,7] <= 1
 move_0_6_10_33: x[0,1,0,6] + x[0,3,3,7] <= 1
 move_0_6_10_34: x[0,1,0,6] + x[0,3,4,7] <= 1
 move_0_6_10_40: x[0,1,0,6] + x[0,4,0,7] <= 1
 move_0_6_10_41: x[0,1,0,6] + x[0,4,1,7] <= 1
 move_0_6_10_42: x[0,1,0,6] + x[0,4,2,7] <= 1
 move_0_6_10_43: x[0,1,0,6] + x[0,4,3,7] <= 1
 move_0_6_10_44: x[0,1,0,6] + x[0,4,4,7] <= 1
 move_0_6_11_03: x[0,0,3,7] + x[0,1,1,6] <= 1
 move_0_6_11_04: x[0,0,4,7] + x[0,1,1,6] <= 1
 move_0_6_11_14: x[0,1,1,6] + x[0,1,4,7] <= 1
 move_0_6_11_23: x[0,1,1,6] + x[0,2,3,7] <= 1
 move_0_6_11_24: x[0,1,1,6] + x[0,2,4,7] <= 1
 move_0_6_11_30: x[0,1,1,6] + x[0,3,0,7] <= 1
 move_0_6_11_32: x[0,1,1,6] + x[0,3,2,7] <= 1
 move_0_6_11_33: x[0,1,1,6] + x[0,3,3,7] <= 1
 move_0_6_11_34: x[0,1,1,6] + x[0,3,4,7] <= 1
 move_0_6_11_40: x[0,1,1,6] + x[0,4,0,7] <= 1
 move_0_6_11_41: x[0,1,1,6] + x[0,4,1,7] <= 1
 move_0_6_11_42: x[0,1,1,6] + x[0,4,2,7] <= 1
 move_0_6_11_43: x[0,1,1,6] + x[0,4,3,7] <= 1
 move_0_6_11_44: x[0,1,1,6] + x[0,4,4,7] <= 1
 move_0_6_12_00: x[0,0,0,7] + x[0,1,2,6] <= 1
 move_0_6_12_04: x[0,0,4,7] + x[0,1,2,6] <= 1
 move_0_6_12_20: x[0,1,2,6] + x[0,2,0,7] <= 1
 move_0_6_12_24: x[0,1,2,6] + x[0,2,4,7] <= 1
 move_0_6_12_30: x[0,1,2,6] + x[0,3,0,7] <= 1
 move_0_6_12_31: x[0,1,2,6] + x[0,3,1,7] <= 1
 move_0_6_12_33: x[0,1,2,6] + x[0,3,3,7] <= 1
 move_0_6_12_34: x[0,1,2,6] + x[0,3,4,7] <= 1
 move_0_6_12_40: x[0,1,2,6] + x[0,4,0,7] <= 1
 move_0_6_12_41: x[0,1,2,6] + x[0,4,1,7] <= 1
 move_0_6_12_42: x[0,1,2,6] + x[0,4,2,7] <= 1
 move_0_6_12_43: x[0,1,2,6] + x[0,4,3,7] <= 1
 move_0_6_12_44: x[0,1,2,6] + x[0,4,4,7] <= 1
 move_0_6_13_00: x[0,0,0,7] + x[0,1,3,6] <= 1
 move_0_6_13_01: x[0,0,1,7] + x[0,1,3,6] <= 1
 move_0_6_13_10: x[0,1,0,7] + x[0,1,3,6] <= 1
 move_0_6_13_20: x[0,1,3,6] + x[0,2,0,7] <= 1
 move_0_6_13_21: x[0,1,3,6] + x[0,2,1,7] <= 1
 move_0_6_13_30: x[0,1,3,6] + x[0,3,0,7] <= 1
 move_0_6_13_31: x[0,1,3,6] + x[0,3,1,7] <= 1
 move_0_6_13_32: x[0,1,3,6] + x[0,3,2,7] <= 1
 move_0_6_13_34: x[0,1,3,6] + x[0,3,4,7] <= 1
 move_0_6_13_40: x[0,1,3,6] + x[0,4,0,7] <= 1
 move_0_6_13_41: x[0,1,3,6] + x[0,4,1,7] <= 1
 move_0_6_13_42: x[0,1,3,6] + x[0,4,2,7] <= 1
 move_0_6_13_43: x[0,1,3,6] + x[0,4,3,7] <= 1
 move_0_6_13_44: x[0,1,3,6] + x[0,4,4,7] <= 1
 move_0_6_14_00: x[0,0,0,7] + x[0,1,4,6] <= 1
 move_0_6_14_01: x[0,0,1,7] + x[0,1,4,6] <= 1
 move_0_6_14_02: x[0,0,2,7] + x[0,1,4,6] <= 1
 move_0_6_14_10: x[0,1,0,7] + x[0,1,4,6] <= 1
 move_0_6_14_11: x[0,1,1,7] + x[0,1,4,6] <= 1
 move_0_6_14_20: x[0,1,4,6] + x[0,2,0,7] <= 1
 move_0_6_14_21: x[0,1,4,6] + x[0,2,1,7] <= 1
 move_0_6_14_22: x[0,1,4,6] + x[0,2,2,7] <= 1
 move_0_6_14_30: x[0,1,4,6] + x[0,3,0,7] <= 1
 move_0_6_14_31: x[0,1,4,6] + x[0,3,1,7] <= 1
 move_0_6_14_32: x[0,1,4,6] + x[0,3,2,7] <= 1
 move_0_6_14_33: x[0,1,4,6] + x[0,3,3,7] <= 1
 move_0_6_14_40: x[0,1,4,6] + x[0,4,0,7] <= 1
 move_0_6_14_41: x[0,1,4,6] + x[0,4,1,7] <= 1
 move_0_6_14_42: x[0,1,4,6] + x[0,4,2,7] <= 1
 move_0_6_14_43: x[0,1,4,6] + x[0,4,3,7] <= 1
 move_0_6_14_44: x[0,1,4,6] + x[0,4,4,7] <= 1
 move_0_6_20_01: x[0,0,1,7] + x[0,2,0,6] <= 1
 move_0_6_20_02: x[0,0,2,7] + x[0,2,0,6] <= 1
 move_0_6_20_03: x[0,0,3,7] + x[0,2,0,6] <= 1
 move_0_6_20_04: x[0,0,4,7] + x[0,2,0,6] <= 1
 move_0_6_20_12: x[0,1,2,7] + x[0,2,0,6] <= 1
 move_0_6_20_13: x[0,1,3,7] + x[0,2,0,6] <= 1
 move_0_6_20_14: x[0,1,4,7] + x[0,2,0,6] <= 1
 move_0_6_20_23: x[0,2,0,6] + x[0,2,3,7] <= 1
 move_0_6_20_24: x[0,2,0,6] + x[0,2,4,7] <= 1
 move_0_6_20_32: x[0,2,0,6] + x[0,3,2,7] <= 1
 move_0_6_20_33: x[0,2,0,6] + x[0,3,3,7] <= 1
 move_0_6_20_34: x[0,2,0,6] + x[0,3,4,7] <= 1
 move_0_6_20_41: x[0,2,0,6] + x[0,4,1,7] <= 1
 move_0_6_20_42: x[0,2,0,6] + x[0,4,2,7] <= 1
 move_0_6_20_43: x[0,2,0,6] + x[0,4,3,7] <= 1
 move_0_6_20_44: x[0,2,0,6] + x[0,4,4,7] <= 1
 move_0_6_21_00: x[0,0,0,7] + x[0,2,1,6] <= 1
 move_0_6_21_02: x[0,0,2,7] + x[0,2,1,6] <= 1
 move_0_6_21_03: x[0,0,3,7] + x[0,2,1,6] <= 1
 move_0_6_21_04: x[0,0,4,7] + x[0,2,1,6] <= 1
 move_0_6_21_13: x[0,1,3,7] + x[0,2,1,6] <= 1
 move_0_6_21_14: x[0,1,4,7] + x[0,2,1,6] <= 1
 move_0_6_21_24: x[0,2,1,6] + x[0,2,4,7] <= 1
 move_0_6_21_33: x[0,2,1,6] + x[0,3,3,7] <= 1
 move_0_6_21_34: x[0,2,1,6] + x[0,3,4,7] <= 1
 move_0_6_21_40: x[0,2,1,6] + x[0,4,0,7] <= 1
 move_0_6_21_42: x[0,2,1,6] + x[0,4,2,7] <= 1
 move_0_6_21_43: x[0,2,1,6] + x[0,4,3,7] <= 1
 move_0_6_21_44: x[0,2,1,6] + x[0,4,4,7] <= 1
 move_0_6_22_00: x[0,0,0,7] + x[0,2,2,6] <= 1
 move_0_6_22_01: x[0,0,1,7] + x[0,2,2,6] <= 1
 move_0_6_22_03: x[0,0,3,7] + x[0,2,2,6] <= 1
 move_0_6_22_04: x[0,0,4,7] + x[0,2,2,6] <= 1
 move_0_6_22_10: x[0,1,0,7] + x[0,2,2,6] <= 1
 move_0_6_22_14: x[0,1,4,7] + x[0,2,2,6] <= 1
 move_0_6_22_30: x[0,2,2,6] + x[0,3,0,7] <= 1
 move_0_6_22_34: x[0,2,2,6] + x[0,3,4,7] <= 1
 move_0_6_22_40: x[0,2,2,6] + x[0,4,0,7] <= 1
 move_0_6_22_41: x[0,2,2,6] + x[0,4,1,7] <= 1
 move_0_6_22_43: x[0,2,2,6] + x[0,4,3,7] <= 1
 move_0_6_22_44: x[0,2,2,6] + x[0,4,4,7] <= 1
 move_0_6_23_00: x[0,0,0,7] + x[0,2,3,6] <= 1
 move_0_6_23_01: x[0,0,1,7] + x[0,2,3,6] <= 1
 move_0_6_23_02: x[0,0,2,7] + x[0,2,3,6] <= 1
 move_0_6_23_04: x[0,0,4,7] + x[0,2,3,6] <= 1
 move_0_6_23_10: x[0,1,0,7] + x[0,2,3,6] <= 1
 move_0_6_23_11: x[0,1,1,7] + x[0,2,3,6] <= 1
 move_0_6_23_20: x[0,2,0,7] + x[0,2,3,6] <= 1
 move_0_6_23_30: x[0,2,3,6] + x[0,3,0,7] <= 1
 move_0_6_23_31: x[0,2,3,6] + x[0,3,1,7] <= 1
 move_0_6_23_40: x[0,2,3,6] + x[0,4,0,7] <= 1
 move_0_6_23_41: x[0,2,3,6] + x[0,4,1,7] <= 1
 move_0_6_23_42: x[0,2,3,6] + x[0,4,2,7] <= 1
 move_0_6_23_44: x[0,2,3,6] + x[0,4,4,7] <= 1
 move_0_6_24_00: x[0,0,0,7] + x[0,2,4,6] <= 1
 move_0_6_24_01: x[0,0,1,7] + x[0,2,4,6] <= 1
 move_0_6_24_02: x[0,0,2,7] + x[0,2,4,6] <= 1
 move_0_6_24_03: x[0,0,3,7] + x[0,2,4,6] <= 1
 move_0_6_24_10: x[0,1,0,7] + x[0,2,4,6] <= 1
 move_0_6_24_11: x[0,1,1,7] + x[0,2,4,6] <= 1
 move_0_6_24_12: x[0,1,2,7] + x[0,2,4,6] <= 1
 move_0_6_24_20: x[0,2,0,7] + x[0,2,4,6] <= 1
 move_0_6_24_21: x[0,2,1,7] + x[0,2,4,6] <= 1
 move_0_6_24_30: x[0,2,4,6] + x[0,3,0,7] <= 1
 move_0_6_24_31: x[0,2,4,6] + x[0,3,1,7] <= 1
 move_0_6_24_32: x[0,2,4,6] + x[0,3,2,7] <= 1
 move_0_6_24_40: x[0,2,4,6] + x[0,4,0,7] <= 1
 move_0_6_24_41: x[0,2,4,6] + x[0,4,1,7] <= 1
 move_0_6_24_42: x[0,2,4,6] + x[0,4,2,7] <= 1
 move_0_6_24_43: x[0,2,4,6] + x[0,4,3,7] <= 1
 move_0_6_30_00: x[0,0,0,7] + x[0,3,0,6] <= 1
 move_0_6_30_01: x[0,0,1,7] + x[0,3,0,6] <= 1
 move_0_6_30_02: x[0,0,2,7] + x[0,3,0,6] <= 1
 move_0_6_30_03: x[0,0,3,7] + x[0,3,0,6] <= 1
 move_0_6_30_04: x[0,0,4,7] + x[0,3,0,6] <= 1
 move_0_6_30_11: x[0,1,1,7] + x[0,3,0,6] <= 1
 move_0_6_30_12: x[0,1,2,7] + x[0,3,0,6] <= 1
 move_0_6_30_13: x[0,1,3,7] + x[0,3,0,6] <= 1
 move_0_6_30_14: x[0,1,4,7] + x[0,3,0,6] <= 1
 move_0_6_30_22: x[0,2,2,7] + x[0,3,0,6] <= 1
 move_0_6_30_23: x[0,2,3,7] + x[0,3,0,6] <= 1
 move_0_6_30_24: x[0,2,4,7] + x[0,3,0,6] <= 1
 move_0_6_30_33: x[0,3,0,6] + x[0,3,3,7] <= 1
 move_0_6_30_34: x[0,3,0,6] + x[0,3,4,7] <= 1
 move_0_6_30_42: x[0,3,0,6] + x[0,4,2,7] <= 1
 move_0_6_30_43: x[0,3,0,6] + x[0,4,3,7] <= 1
 move_0_6_30_44: x[0,3,0,6] + x[0,4,4,7] <= 1
 move_0_6_31_00: x[0,0,0,7] + x[0,3,1,6] <= 1
 move_0_6_31_01: x[0,0,1,7] + x[0,3,1,6] <= 1
 move_0_6_31_02: x[0,0,2,7] + x[0,3,1,6] <= 1
 move_0_6_31_03: x[0,0,3,7] + x[0,3,1,6] <= 1
 move_0_6_31_04: x[0,0,4,7] + x[0,3,1,6] <= 1
 move_0_6_31_10: x[0,1,0,7] + x[0,3,1,6] <= 1
 move_0_6_31_12: x[0,1,2,7] + x[0,3,1,6] <= 1
 move_0_6_31_13: x[0,1,3,7] + x[0,3,1,6] <= 1
 move_0_6_31_14: x[0,1,4,7] + x[0,3,1,6] <= 1
 move_0_6_31_23: x[0,2,3,7] + x[0,3,1,6] <= 1
 move_0_6_31_24: x[0,2,4,7] + x[0,3,1,6] <= 1
 move_0_6_31_34: x[0,3,1,6] + x[0,3,4,7] <= 1
 move_0_6_31_43: x[0,3,1,6] + x[0,4,3,7] <= 1
 move_0_6_31_44: x[0,3,1,6] + x[0,4,4,7] <= 1
 move_0_6_32_00: x[0,0,0,7] + x[0,3,2,6] <= 1
 move_0_6_32_01: x[0,0,1,7] + x[0,3,2,6] <= 1
 move_0_6_32_02: x[0,0,2,7] + x[0,3,2,6] <= 1
 move_0_6_32_03: x[0,0,3,7] + x[0,3,2,6] <= 1
 move_0_6_32_04: x[0,0,4,7] + x[0,3,2,6] <= 1
 move_0_6_32_10: x[0,1,0,7] + x[0,3,2,6] <= 1
 move_0_6_32_11: x[0,1,1,7] + x[0,3,2,6] <= 1
 move_0_6_32_13: x[0,1,3,7] + x[0,3,2,6] <= 1
 move_0_6_32_14: x[0,1,4,7] + x[0,3,2,6] <= 1
 move_0_6_32_20: x[0,2,0,7] + x[0,3,2,6] <= 1
 move_0_6_32_24: x[0,2,4,7] + x[0,3,2,6] <= 1
 move_0_6_32_40: x[0,3,2,6] + x[0,4,0,7] <= 1
 move_0_6_32_44: x[0,3,2,6] + x[0,4,4,7] <= 1
 move_0_6_33_00: x[0,0,0,7] + x[0,3,3,6] <= 1
 move_0_6_33_01: x[0,0,1,7] + x[0,3,3,6] <= 1
 move_0_6_33_02: x[0,0,2,7] + x[0,3,3,6] <= 1
 move_0_6_33_03: x[0,0,3,7] + x[0,3,3,6] <= 1
 move_0_6_33_04: x[0,0,4,7] + x[0,3,3,6] <= 1
 move_0_6_33_10: x[0,1,0,7] + x[0,3,3,6] <= 1
 move_0_6_33_11: x[0,1,1,7] + x[0,3,3,6] <= 1
 move_0_6_33_12: x[0,1,2,7] + x[0,3,3,6] <= 1
 move_0_6_33_14: x[0,1,4,7] + x[0,3,3,6] <= 1
 move_0_6_33_20: x[0,2,0,7] + x[0,3,3,6] <= 1
 move_0_6_33_21: x[0,2,1,7] + x[0,3,3,6] <= 1
 move_0_6_33_30: x[0,3,0,7] + x[0,3,3,6] <= 1
 move_0_6_33_40: x[0,3,3,6] + x[0,4,0,7] <= 1
 move_0_6_33_41: x[0,3,3,6] + x[0,4,1,7] <= 1
 move_0_6_34_00: x[0,0,0,7] + x[0,3,4,6] <= 1
 move_0_6_34_01: x[0,0,1,7] + x[0,3,4,6] <= 1
 move_0_6_34_02: x[0,0,2,7] + x[0,3,4,6] <= 1
 move_0_6_34_03: x[0,0,3,7] + x[0,3,4,6] <= 1
 move_0_6_34_04: x[0,0,4,7] + x[0,3,4,6] <= 1
 move_0_6_34_10: x[0,1,0,7] + x[0,3,4,6] <= 1
 move_0_6_34_11: x[0,1,1,7] + x[0,3,4,6] <= 1
 move_0_6_34_12: x[0,1,2,7] + x[0,3,4,6] <= 1
 move_0_6_34_13: x[0,1,3,7] + x[0,3,4,6] <= 1
 move_0_6_34_20: x[0,2,0,7] + x[0,3,4,6] <= 1
 move_0_6_34_21: x[0,2,1,7] + x[0,3,4,6] <= 1
 move_0_6_34_22: x[0,2,2,7] + x[0,3,4,6] <= 1
 move_0_6_34_30: x[0,3,0,7] + x[0,3,4,6] <= 1
 move_0_6_34_31: x[0,3,1,7] + x[0,3,4,6] <= 1
 move_0_6_34_40: x[0,3,4,6] + x[0,4,0,7] <= 1
 move_0_6_34_41: x[0,3,4,6] + x[0,4,1,7] <= 1
 move_0_6_34_42: x[0,3,4,6] + x[0,4,2,7] <= 1
 move_0_6_40_00: x[0,0,0,7] + x[0,4,0,6] <= 1
 move_0_6_40_01: x[0,0,1,7] + x[0,4,0,6] <= 1
 move_0_6_40_02: x[0,0,2,7] + x[0,4,0,6] <= 1
 move_0_6_40_03: x[0,0,3,7] + x[0,4,0,6] <= 1
 move_0_6_40_04: x[0,0,4,7] + x[0,4,0,6] <= 1
 move_0_6_40_10: x[0,1,0,7] + x[0,4,0,6] <= 1
 move_0_6_40_11: x[0,1,1,7] + x[0,4,0,6] <= 1
 move_0_6_40_12: x[0,1,2,7] + x[0,4,0,6] <= 1
 move_0_6_40_13: x[0,1,3,7] + x[0,4,0,6] <= 1
 move_0_6_40_14: x[0,1,4,7] + x[0,4,0,6] <= 1
 move_0_6_40_21: x[0,2,1,7] + x[0,4,0,6] <= 1
 move_0_6_40_22: x[0,2,2,7] + x[0,4,0,6] <= 1
 move_0_6_40_23: x[0,2,3,7] + x[0,4,0,6] <= 1
 move_0_6_40_24: x[0,2,4,7] + x[0,4,0,6] <= 1
 move_0_6_40_32: x[0,3,2,7] + x[0,4,0,6] <= 1
 move_0_6_40_33: x[0,3,3,7] + x[0,4,0,6] <= 1
 move_0_6_40_34: x[0,3,4,7] + x[0,4,0,6] <= 1
 move_0_6_40_43: x[0,4,0,6] + x[0,4,3,7] <= 1
 move_0_6_40_44: x[0,4,0,6] + x[0,4,4,7] <= 1
 move_0_6_41_00: x[0,0,0,7] + x[0,4,1,6] <= 1
 move_0_6_41_01: x[0,0,1,7] + x[0,4,1,6] <= 1
 move_0_6_41_02: x[0,0,2,7] + x[0,4,1,6] <= 1
 move_0_6_41_03: x[0,0,3,7] + x[0,4,1,6] <= 1
 move_0_6_41_04: x[0,0,4,7] + x[0,4,1,6] <= 1
 move_0_6_41_10: x[0,1,0,7] + x[0,4,1,6] <= 1
 move_0_6_41_11: x[0,1,1,7] + x[0,4,1,6] <= 1
 move_0_6_41_12: x[0,1,2,7] + x[0,4,1,6] <= 1
 move_0_6_41_13: x[0,1,3,7] + x[0,4,1,6] <= 1
 move_0_6_41_14: x[0,1,4,7] + x[0,4,1,6] <= 1
 move_0_6_41_20: x[0,2,0,7] + x[0,4,1,6] <= 1
 move_0_6_41_22: x[0,2,2,7] + x[0,4,1,6] <= 1
 move_0_6_41_23: x[0,2,3,7] + x[0,4,1,6] <= 1
 move_0_6_41_24: x[0,2,4,7] + x[0,4,1,6] <= 1
 move_0_6_41_33: x[0,3,3,7] + x[0,4,1,6] <= 1
 move_0_6_41_34: x[0,3,4,7] + x[0,4,1,6] <= 1
 move_0_6_41_44: x[0,4,1,6] + x[0,4,4,7] <= 1
 move_0_6_42_00: x[0,0,0,7] + x[0,4,2,6] <= 1
 move_0_6_42_01: x[0,0,1,7] + x[0,4,2,6] <= 1
 move_0_6_42_02: x[0,0,2,7] + x[0,4,2,6] <= 1
 move_0_6_42_03: x[0,0,3,7] + x[0,4,2,6] <= 1
 move_0_6_42_04: x[0,0,4,7] + x[0,4,2,6] <= 1
 move_0_6_42_10: x[0,1,0,7] + x[0,4,2,6] <= 1
 move_0_6_42_11: x[0,1,1,7] + x[0,4,2,6] <= 1
 move_0_6_42_12: x[0,1,2,7] + x[0,4,2,6] <= 1
 move_0_6_42_13: x[0,1,3,7] + x[0,4,2,6] <= 1
 move_0_6_42_14: x[0,1,4,7] + x[0,4,2,6] <= 1
 move_0_6_42_20: x[0,2,0,7] + x[0,4,2,6] <= 1
 move_0_6_42_21: x[0,2,1,7] + x[0,4,2,6] <= 1
 move_0_6_42_23: x[0,2,3,7] + x[0,4,2,6] <= 1
 move_0_6_42_24: x[0,2,4,7] + x[0,4,2,6] <= 1
 move_0_6_42_30: x[0,3,0,7] + x[0,4,2,6] <= 1
 move_0_6_42_34: x[0,3,4,7] + x[0,4,2,6] <= 1
 move_0_6_43_00: x[0,0,0,7] + x[0,4,3,6] <= 1
 move_0_6_43_01: x[0,0,1,7] + x[0,4,3,6] <= 1
 move_0_6_43_02: x[0,0,2,7] + x[0,4,3,6] <= 1
 move_0_6_43_03: x[0,0,3,7] + x[0,4,3,6] <= 1
 move_0_6_43_04: x[0,0,4,7] + x[0,4,3,6] <= 1
 move_0_6_43_10: x[0,1,0,7] + x[0,4,3,6] <= 1
 move_0_6_43_11: x[0,1,1,7] + x[0,4,3,6] <= 1
 move_0_6_43_12: x[0,1,2,7] + x[0,4,3,6] <= 1
 move_0_6_43_13: x[0,1,3,7] + x[0,4,3,6] <= 1
 move_0_6_43_14: x[0,1,4,7] + x[0,4,3,6] <= 1
 move_0_6_43_20: x[0,2,0,7] + x[0,4,3,6] <= 1
 move_0_6_43_21: x[0,2,1,7] + x[0,4,3,6] <= 1
 move_0_6_43_22: x[0,2,2,7] + x[0,4,3,6] <= 1
 move_0_6_43_24: x[0,2,4,7] + x[0,4,3,6] <= 1
 move_0_6_43_30: x[0,3,0,7] + x[0,4,3,6] <= 1
 move_0_6_43_31: x[0,3,1,7] + x[0,4,3,6] <= 1
 move_0_6_43_40: x[0,4,0,7] + x[0,4,3,6] <= 1
 move_0_6_44_00: x[0,0,0,7] + x[0,4,4,6] <= 1
 move_0_6_44_01: x[0,0,1,7] + x[0,4,4,6] <= 1
 move_0_6_44_02: x[0,0,2,7] + x[0,4,4,6] <= 1
 move_0_6_44_03: x[0,0,3,7] + x[0,4,4,6] <= 1
 move_0_6_44_04: x[0,0,4,7] + x[0,4,4,6] <= 1
 move_0_6_44_10: x[0,1,0,7] + x[0,4,4,6] <= 1
 move_0_6_44_11: x[0,1,1,7] + x[0,4,4,6] <= 1
 move_0_6_44_12: x[0,1,2,7] + x[0,4,4,6] <= 1
 move_0_6_44_13: x[0,1,3,7] + x[0,4,4,6] <= 1
 move_0_6_44_14: x[0,1,4,7] + x[0,4,4,6] <= 1
 move_0_6_44_20: x[0,2,0,7] + x[0,4,4,6] <= 1
 move_0_6_44_21: x[0,2,1,7] + x[0,4,4,6] <= 1
 move_0_6_44_22: x[0,2,2,7] + x[0,4,4,6] <= 1
 move_0_6_44_23: x[0,2,3,7] + x[0,4,4,6] <= 1
 move_0_6_44_30: x[0,3,0,7] + x[0,4,4,6] <= 1
 move_0_6_44_31: x[0,3,1,7] + x[0,4,4,6] <= 1
 move_0_6_44_32: x[0,3,2,7] + x[0,4,4,6] <= 1
 move_0_6_44_40: x[0,4,0,7] + x[0,4,4,6] <= 1
 move_0_6_44_41: x[0,4,1,7] + x[0,4,4,6] <= 1
 move_0_7_00_03: x[0,0,0,7] + x[0,0,3,8] <= 1
 move_0_7_00_04: x[0,0,0,7] + x[0,0,4,8] <= 1
 move_0_7_00_12: x[0,0,0,7] + x[0,1,2,8] <= 1
 move_0_7_00_13: x[0,0,0,7] + x[0,1,3,8] <= 1
 move_0_7_00_14: x[0,0,0,7] + x[0,1,4,8] <= 1
 move_0_7_00_21: x[0,0,0,7] + x[0,2,1,8] <= 1
 move_0_7_00_22: x[0,0,0,7] + x[0,2,2,8] <= 1
 move_0_7_00_23: x[0,0,0,7] + x[0,2,3,8] <= 1
 move_0_7_00_24: x[0,0,0,7] + x[0,2,4,8] <= 1
 move_0_7_00_30: x[0,0,0,7] + x[0,3,0,8] <= 1
 move_0_7_00_31: x[0,0,0,7] + x[0,3,1,8] <= 1
 move_0_7_00_32: x[0,0,0,7] + x[0,3,2,8] <= 1
 move_0_7_00_33: x[0,0,0,7] + x[0,3,3,8] <= 1
 move_0_7_00_34: x[0,0,0,7] + x[0,3,4,8] <= 1
 move_0_7_00_40: x[0,0,0,7] + x[0,4,0,8] <= 1
 move_0_7_00_41: x[0,0,0,7] + x[0,4,1,8] <= 1
 move_0_7_00_42: x[0,0,0,7] + x[0,4,2,8] <= 1
 move_0_7_00_43: x[0,0,0,7] + x[0,4,3,8] <= 1
 move_0_7_00_44: x[0,0,0,7] + x[0,4,4,8] <= 1
 move_0_7_01_04: x[0,0,1,7] + x[0,0,4,8] <= 1
 move_0_7_01_13: x[0,0,1,7] + x[0,1,3,8] <= 1
 move_0_7_01_14: x[0,0,1,7] + x[0,1,4,8] <= 1
 move_0_7_01_20: x[0,0,1,7] + x[0,2,0,8] <= 1
 move_0_7_01_22: x[0,0,1,7] + x[0,2,2,8] <= 1
 move_0_7_01_23: x[0,0,1,7] + x[0,2,3,8] <= 1
 move_0_7_01_24: x[0,0,1,7] + x[0,2,4,8] <= 1
 move_0_7_01_30: x[0,0,1,7] + x[0,3,0,8] <= 1
 move_0_7_01_31: x[0,0,1,7] + x[0,3,1,8] <= 1
 move_0_7_01_32: x[0,0,1,7] + x[0,3,2,8] <= 1
 move_0_7_01_33: x[0,0,1,7] + x[0,3,3,8] <= 1
 move_0_7_01_34: x[0,0,1,7] + x[0,3,4,8] <= 1
 move_0_7_01_40: x[0,0,1,7] + x[0,4,0,8] <= 1
 move_0_7_01_41: x[0,0,1,7] + x[0,4,1,8] <= 1
 move_0_7_01_42: x[0,0,1,7] + x[0,4,2,8] <= 1
 move_0_7_01_43: x[0,0,1,7] + x[0,4,3,8] <= 1
 move_0_7_01_44: x[0,0,1,7] + x[0,4,4,8] <= 1
 move_0_7_02_10: x[0,0,2,7] + x[0,1,0,8] <= 1
 move_0_7_02_14: x[0,0,2,7] + x[0,1,4,8] <= 1
 move_0_7_02_20: x[0,0,2,7] + x[0,2,0,8] <= 1
 move_0_7_02_21: x[0,0,2,7] + x[0,2,1,8] <= 1
 move_0_7_02_23: x[0,0,2,7] + x[0,2,3,8] <= 1
 move_0_7_02_24: x[0,0,2,7] + x[0,2,4,8] <= 1
 move_0_7_02_30: x[0,0,2,7] + x[0,3,0,8] <= 1
 move_0_7_02_31: x[0,0,2,7] + x[0,3,1,8] <= 1
 move_0_7_02_32: x[0,0,2,7] + x[0,3,2,8] <= 1
 move_0_7_02_33: x[0,0,2,7] + x[0,3,3,8] <= 1
 move_0_7_02_34: x[0,0,2,7] + x[0,3,4,8] <= 1
 move_0_7_02_40: x[0,0,2,7] + x[0,4,0,8] <= 1
 move_0_7_02_41: x[0,0,2,7] + x[0,4,1,8] <= 1
 move_0_7_02_42: x[0,0,2,7] + x[0,4,2,8] <= 1
 move_0_7_02_43: x[0,0,2,7] + x[0,4,3,8] <= 1
 move_0_7_02_44: x[0,0,2,7] + x[0,4,4,8] <= 1
 move_0_7_03_00: x[0,0,0,8] + x[0,0,3,7] <= 1
 move_0_7_03_10: x[0,0,3,7] + x[0,1,0,8] <= 1
 move_0_7_03_11: x[0,0,3,7] + x[0,1,1,8] <= 1
 move_0_7_03_20: x[0,0,3,7] + x[0,2,0,8] <= 1
 move_0_7_03_21: x[0,0,3,7] + x[0,2,1,8] <= 1
 move_0_7_03_22: x[0,0,3,7] + x[0,2,2,8] <= 1
 move_0_7_03_24: x[0,0,3,7] + x[0,2,4,8] <= 1
 move_0_7_03_30: x[0,0,3,7] + x[0,3,0,8] <= 1
 move_0_7_03_31: x[0,0,3,7] + x[0,3,1,8] <= 1
 move_0_7_03_32: x[0,0,3,7] + x[0,3,2,8] <= 1
 move_0_7_03_33: x[0,0,3,7] + x[0,3,3,8] <= 1
 move_0_7_03_34: x[0,0,3,7] + x[0,3,4,8] <= 1
 move_0_7_03_40: x[0,0,3,7] + x[0,4,0,8] <= 1
 move_0_7_03_41: x[0,0,3,7] + x[0,4,1,8] <= 1
 move_0_7_03_42: x[0,0,3,7] + x[0,4,2,8] <= 1
 move_0_7_03_43: x[0,0,3,7] + x[0,4,3,8] <= 1
 move_0_7_03_44: x[0,0,3,7] + x[0,4,4,8] <= 1
 move_0_7_04_00: x[0,0,0,8] + x[0,0,4,7] <= 1
 move_0_7_04_01: x[0,0,1,8] + x[0,0,4,7] <= 1
 move_0_7_04_10: x[0,0,4,7] + x[0,1,0,8] <= 1
 move_0_7_04_11: x[0,0,4,7] + x[0,1,1,8] <= 1
 move_0_7_04_12: x[0,0,4,7] + x[0,1,2,8] <= 1
 move_0_7_04_20: x[0,0,4,7] + x[0,2,0,8] <= 1
 move_0_7_04_21: x[0,0,4,7] + x[0,2,1,8] <= 1
 move_0_7_04_22: x[0,0,4,7] + x[0,2,2,8] <= 1
 move_0_7_04_23: x[0,0,4,7] + x[0,2,3,8] <= 1
 move_0_7_04_30: x[0,0,4,7] + x[0,3,0,8] <= 1
 move_0_7_04_31: x[0,0,4,7] + x[0,3,1,8] <= 1
 move_0_7_04_32: x[0,0,4,7] + x[0,3,2,8] <= 1
 move_0_7_04_33: x[0,0,4,7] + x[0,3,3,8] <= 1
 move_0_7_04_34: x[0,0,4,7] + x[0,3,4,8] <= 1
 move_0_7_04_40: x[0,0,4,7] + x[0,4,0,8] <= 1
 move_0_7_04_41: x[0,0,4,7] + x[0,4,1,8] <= 1
 move_0_7_04_42: x[0,0,4,7] + x[0,4,2,8] <= 1
 move_0_7_04_43: x[0,0,4,7] + x[0,4,3,8] <= 1
 move_0_7_04_44: x[0,0,4,7] + x[0,4,4,8] <= 1
 move_0_7_10_02: x[0,0,2,8] + x[0,1,0,7] <= 1
 move_0_7_10_03: x[0,0,3,8] + x[0,1,0,7] <= 1
 move_0_7_10_04: x[0,0,4,8] + x[0,1,0,7] <= 1
 move_0_7_10_13: x[0,1,0,7] + x[0,1,3,8] <= 1
 move_0_7_10_14: x[0,1,0,7] + x[0,1,4,8] <= 1
 move_0_7_10_22: x[0,1,0,7] + x[0,2,2,8] <= 1
 move_0_7_10_23: x[0,1,0,7] + x[0,2,3,8] <= 1
 move_0_7_10_24: x[0,1,0,7] + x[0,2,4,8] <= 1
 move_0_7_10_31: x[0,1,0,7] + x[0,3,1,8] <= 1
 move_0_7_10_32: x[0,1,0,7] + x[0,3,2,8] <= 1
 move_0_7_10_33: x[0,1,0,7] + x[0,3,3,8] <= 1
 move_0_7_10_34: x[0,1,0,7] + x[0,3,4,8] <= 1
 move_0_7_10_40: x[0,1,0,7] + x[0,4,0,8] <= 1
 move_0_7_10_41: x[0,1,0,7] + x[0,4,1,8] <= 1
 move_0_7_10_42: x[0,1,0,7] + x[0,4,2,8] <= 1
 move_0_7_10_43: x[0,1,0,7] + x[0,4,3,8] <= 1
 move_0_7_10_44: x[0,1,0,7] + x[0,4,4,8] <= 1
 move_0_7_11_03: x[0,0,3,8] + x[0,1,1,7] <= 1
 move_0_7_11_04: x[0,0,4,8] + x[0,1,1,7] <= 1
 move_0_7_11_14: x[0,1,1,7] + x[0,1,4,8] <= 1
 move_0_7_11_23: x[0,1,1,7] + x[0,2,3,8] <= 1
 move_0_7_11_24: x[0,1,1,7] + x[0,2,4,8] <= 1
 move_0_7_11_30: x[0,1,1,7] + x[0,3,0,8] <= 1
 move_0_7_11_32: x[0,1,1,7] + x[0,3,2,8] <= 1
 move_0_7_11_33: x[0,1,1,7] + x[0,3,3,8] <= 1
 move_0_7_11_34: x[0,1,1,7] + x[0,3,4,8] <= 1
 move_0_7_11_40: x[0,1,1,7] + x[0,4,0,8] <= 1
 move_0_7_11_41: x[0,1,1,7] + x[0,4,1,8] <= 1
 move_0_7_11_42: x[0,1,1,7] + x[0,4,2,8] <= 1
 move_0_7_11_43: x[0,1,1,7] + x[0,4,3,8] <= 1
 move_0_7_11_44: x[0,1,1,7] + x[0,4,4,8] <= 1
 move_0_7_12_00: x[0,0,0,8] + x[0,1,2,7] <= 1
 move_0_7_12_04: x[0,0,4,8] + x[0,1,2,7] <= 1
 move_0_7_12_20: x[0,1,2,7] + x[0,2,0,8] <= 1
 move_0_7_12_24: x[0,1,2,7] + x[0,2,4,8] <= 1
 move_0_7_12_30: x[0,1,2,7] + x[0,3,0,8] <= 1
 move_0_7_12_31: x[0,1,2,7] + x[0,3,1,8] <= 1
 move_0_7_12_33: x[0,1,2,7] + x[0,3,3,8] <= 1
 move_0_7_12_34: x[0,1,2,7] + x[0,3,4,8] <= 1
 move_0_7_12_40: x[0,1,2,7] + x[0,4,0,8] <= 1
 move_0_7_12_41: x[0,1,2,7] + x[0,4,1,8] <= 1
 move_0_7_12_42: x[0,1,2,7] + x[0,4,2,8] <= 1
 move_0_7_12_43: x[0,1,2,7] + x[0,4,3,8] <= 1
 move_0_7_12_44: x[0,1,2,7] + x[0,4,4,8] <= 1
 move_0_7_13_00: x[0,0,0,8] + x[0,1,3,7] <= 1
 move_0_7_13_01: x[0,0,1,8] + x[0,1,3,7] <= 1
 move_0_7_13_10: x[0,1,0,8] + x[0,1,3,7] <= 1
 move_0_7_13_20: x[0,1,3,7] + x[0,2,0,8] <= 1
 move_0_7_13_21: x[0,1,3,7] + x[0,2,1,8] <= 1
 move_0_7_13_30: x[0,1,3,7] + x[0,3,0,8] <= 1
 move_0_7_13_31: x[0,1,3,7] + x[0,3,1,8] <= 1
 move_0_7_13_32: x[0,1,3,7] + x[0,3,2,8] <= 1
 move_0_7_13_34: x[0,1,3,7] + x[0,3,4,8] <= 1
 move_0_7_13_40: x[0,1,3,7] + x[0,4,0,8] <= 1
 move_0_7_13_41: x[0,1,3,7] + x[0,4,1,8] <= 1
 move_0_7_13_42: x[0,1,3,7] + x[0,4,2,8] <= 1
 move_0_7_13_43: x[0,1,3,7] + x[0,4,3,8] <= 1
 move_0_7_13_44: x[0,1,3,7] + x[0,4,4,8] <= 1
 move_0_7_14_00: x[0,0,0,8] + x[0,1,4,7] <= 1
 move_0_7_14_01: x[0,0,1,8] + x[0,1,4,7] <= 1
 move_0_7_14_02: x[0,0,2,8] + x[0,1,4,7] <= 1
 move_0_7_14_10: x[0,1,0,8] + x[0,1,4,7] <= 1
 move_0_7_14_11: x[0,1,1,8] + x[0,1,4,7] <= 1
 move_0_7_14_20: x[0,1,4,7] + x[0,2,0,8] <= 1
 move_0_7_14_21: x[0,1,4,7] + x[0,2,1,8] <= 1
 move_0_7_14_22: x[0,1,4,7] + x[0,2,2,8] <= 1
 move_0_7_14_30: x[0,1,4,7] + x[0,3,0,8] <= 1
 move_0_7_14_31: x[0,1,4,7] + x[0,3,1,8] <= 1
 move_0_7_14_32: x[0,1,4,7] + x[0,3,2,8] <= 1
 move_0_7_14_33: x[0,1,4,7] + x[0,3,3,8] <= 1
 move_0_7_14_40: x[0,1,4,7] + x[0,4,0,8] <= 1
 move_0_7_14_41: x[0,1,4,7] + x[0,4,1,8] <= 1
 move_0_7_14_42: x[0,1,4,7] + x[0,4,2,8] <= 1
 move_0_7_14_43: x[0,1,4,7] + x[0,4,3,8] <= 1
 move_0_7_14_44: x[0,1,4,7] + x[0,4,4,8] <= 1
 move_0_7_20_01: x[0,0,1,8] + x[0,2,0,7] <= 1
 move_0_7_20_02: x[0,0,2,8] + x[0,2,0,7] <= 1
 move_0_7_20_03: x[0,0,3,8] + x[0,2,0,7] <= 1
 move_0_7_20_04: x[0,0,4,8] + x[0,2,0,7] <= 1
 move_0_7_20_12: x[0,1,2,8] + x[0,2,0,7] <= 1
 move_0_7_20_13: x[0,1,3,8] + x[0,2,0,7] <= 1
 move_0_7_20_14: x[0,1,4,8] + x[0,2,0,7] <= 1
 move_0_7_20_23: x[0,2,0,7] + x[0,2,3,8] <= 1
 move_0_7_20_24: x[0,2,0,7] + x[0,2,4,8] <= 1
 move_0_7_20_32: x[0,2,0,7] + x[0,3,2,8] <= 1
 move_0_7_20_33: x[0,2,0,7] + x[0,3,3,8] <= 1
 move_0_7_20_34: x[0,2,0,7] + x[0,3,4,8] <= 1
 move_0_7_20_41: x[0,2,0,7] + x[0,4,1,8] <= 1
 move_0_7_20_42: x[0,2,0,7] + x[0,4,2,8] <= 1
 move_0_7_20_43: x[0,2,0,7] + x[0,4,3,8] <= 1
 move_0_7_20_44: x[0,2,0,7] + x[0,4,4,8] <= 1
 move_0_7_21_00: x[0,0,0,8] + x[0,2,1,7] <= 1
 move_0_7_21_02: x[0,0,2,8] + x[0,2,1,7] <= 1
 move_0_7_21_03: x[0,0,3,8] + x[0,2,1,7] <= 1
 move_0_7_21_04: x[0,0,4,8] + x[0,2,1,7] <= 1
 move_0_7_21_13: x[0,1,3,8] + x[0,2,1,7] <= 1
 move_0_7_21_14: x[0,1,4,8] + x[0,2,1,7] <= 1
 move_0_7_21_24: x[0,2,1,7] + x[0,2,4,8] <= 1
 move_0_7_21_33: x[0,2,1,7] + x[0,3,3,8] <= 1
 move_0_7_21_34: x[0,2,1,7] + x[0,3,4,8] <= 1
 move_0_7_21_40: x[0,2,1,7] + x[0,4,0,8] <= 1
 move_0_7_21_42: x[0,2,1,7] + x[0,4,2,8] <= 1
 move_0_7_21_43: x[0,2,1,7] + x[0,4,3,8] <= 1
 move_0_7_21_44: x[0,2,1,7] + x[0,4,4,8] <= 1
 move_0_7_22_00: x[0,0,0,8] + x[0,2,2,7] <= 1
 move_0_7_22_01: x[0,0,1,8] + x[0,2,2,7] <= 1
 move_0_7_22_03: x[0,0,3,8] + x[0,2,2,7] <= 1
 move_0_7_22_04: x[0,0,4,8] + x[0,2,2,7] <= 1
 move_0_7_22_10: x[0,1,0,8] + x[0,2,2,7] <= 1
 move_0_7_22_14: x[0,1,4,8] + x[0,2,2,7] <= 1
 move_0_7_22_30: x[0,2,2,7] + x[0,3,0,8] <= 1
 move_0_7_22_34: x[0,2,2,7] + x[0,3,4,8] <= 1
 move_0_7_22_40: x[0,2,2,7] + x[0,4,0,8] <= 1
 move_0_7_22_41: x[0,2,2,7] + x[0,4,1,8] <= 1
 move_0_7_22_43: x[0,2,2,7] + x[0,4,3,8] <= 1
 move_0_7_22_44: x[0,2,2,7] + x[0,4,4,8] <= 1
 move_0_7_23_00: x[0,0,0,8] + x[0,2,3,7] <= 1
 move_0_7_23_01: x[0,0,1,8] + x[0,2,3,7] <= 1
 move_0_7_23_02: x[0,0,2,8] + x[0,2,3,7] <= 1
 move_0_7_23_04: x[0,0,4,8] + x[0,2,3,7] <= 1
 move_0_7_23_10: x[0,1,0,8] + x[0,2,3,7] <= 1
 move_0_7_23_11: x[0,1,1,8] + x[0,2,3,7] <= 1
 move_0_7_23_20: x[0,2,0,8] + x[0,2,3,7] <= 1
 move_0_7_23_30: x[0,2,3,7] + x[0,3,0,8] <= 1
 move_0_7_23_31: x[0,2,3,7] + x[0,3,1,8] <= 1
 move_0_7_23_40: x[0,2,3,7] + x[0,4,0,8] <= 1
 move_0_7_23_41: x[0,2,3,7] + x[0,4,1,8] <= 1
 move_0_7_23_42: x[0,2,3,7] + x[0,4,2,8] <= 1
 move_0_7_23_44: x[0,2,3,7] + x[0,4,4,8] <= 1
 move_0_7_24_00: x[0,0,0,8] + x[0,2,4,7] <= 1
 move_0_7_24_01: x[0,0,1,8] + x[0,2,4,7] <= 1
 move_0_7_24_02: x[0,0,2,8] + x[0,2,4,7] <= 1
 move_0_7_24_03: x[0,0,3,8] + x[0,2,4,7] <= 1
 move_0_7_24_10: x[0,1,0,8] + x[0,2,4,7] <= 1
 move_0_7_24_11: x[0,1,1,8] + x[0,2,4,7] <= 1
 move_0_7_24_12: x[0,1,2,8] + x[0,2,4,7] <= 1
 move_0_7_24_20: x[0,2,0,8] + x[0,2,4,7] <= 1
 move_0_7_24_21: x[0,2,1,8] + x[0,2,4,7] <= 1
 move_0_7_24_30: x[0,2,4,7] + x[0,3,0,8] <= 1
 move_0_7_24_31: x[0,2,4,7] + x[0,3,1,8] <= 1
 move_0_7_24_32: x[0,2,4,7] + x[0,3,2,8] <= 1
 move_0_7_24_40: x[0,2,4,7] + x[0,4,0,8] <= 1
 move_0_7_24_41: x[0,2,4,7] + x[0,4,1,8] <= 1
 move_0_7_24_42: x[0,2,4,7] + x[0,4,2,8] <= 1
 move_0_7_24_43: x[0,2,4,7] + x[0,4,3,8] <= 1
 move_0_7_30_00: x[0,0,0,8] + x[0,3,0,7] <= 1
 move_0_7_30_01: x[0,0,1,8] + x[0,3,0,7] <= 1
 move_0_7_30_02: x[0,0,2,8] + x[0,3,0,7] <= 1
 move_0_7_30_03: x[0,0,3,8] + x[0,3,0,7] <= 1
 move_0_7_30_04: x[0,0,4,8] + x[0,3,0,7] <= 1
 move_0_7_30_11: x[0,1,1,8] + x[0,3,0,7] <= 1
 move_0_7_30_12: x[0,1,2,8] + x[0,3,0,7] <= 1
 move_0_7_30_13: x[0,1,3,8] + x[0,3,0,7] <= 1
 move_0_7_30_14: x[0,1,4,8] + x[0,3,0,7] <= 1
 move_0_7_30_22: x[0,2,2,8] + x[0,3,0,7] <= 1
 move_0_7_30_23: x[0,2,3,8] + x[0,3,0,7] <= 1
 move_0_7_30_24: x[0,2,4,8] + x[0,3,0,7] <= 1
 move_0_7_30_33: x[0,3,0,7] + x[0,3,3,8] <= 1
 move_0_7_30_34: x[0,3,0,7] + x[0,3,4,8] <= 1
 move_0_7_30_42: x[0,3,0,7] + x[0,4,2,8] <= 1
 move_0_7_30_43: x[0,3,0,7] + x[0,4,3,8] <= 1
 move_0_7_30_44: x[0,3,0,7] + x[0,4,4,8] <= 1
 move_0_7_31_00: x[0,0,0,8] + x[0,3,1,7] <= 1
 move_0_7_31_01: x[0,0,1,8] + x[0,3,1,7] <= 1
 move_0_7_31_02: x[0,0,2,8] + x[0,3,1,7] <= 1
 move_0_7_31_03: x[0,0,3,8] + x[0,3,1,7] <= 1
 move_0_7_31_04: x[0,0,4,8] + x[0,3,1,7] <= 1
 move_0_7_31_10: x[0,1,0,8] + x[0,3,1,7] <= 1
 move_0_7_31_12: x[0,1,2,8] + x[0,3,1,7] <= 1
 move_0_7_31_13: x[0,1,3,8] + x[0,3,1,7] <= 1
 move_0_7_31_14: x[0,1,4,8] + x[0,3,1,7] <= 1
 move_0_7_31_23: x[0,2,3,8] + x[0,3,1,7] <= 1
 move_0_7_31_24: x[0,2,4,8] + x[0,3,1,7] <= 1
 move_0_7_31_34: x[0,3,1,7] + x[0,3,4,8] <= 1
 move_0_7_31_43: x[0,3,1,7] + x[0,4,3,8] <= 1
 move_0_7_31_44: x[0,3,1,7] + x[0,4,4,8] <= 1
 move_0_7_32_00: x[0,0,0,8] + x[0,3,2,7] <= 1
 move_0_7_32_01: x[0,0,1,8] + x[0,3,2,7] <= 1
 move_0_7_32_02: x[0,0,2,8] + x[0,3,2,7] <= 1
 move_0_7_32_03: x[0,0,3,8] + x[0,3,2,7] <= 1
 move_0_7_32_04: x[0,0,4,8] + x[0,3,2,7] <= 1
 move_0_7_32_10: x[0,1,0,8] + x[0,3,2,7] <= 1
 move_0_7_32_11: x[0,1,1,8] + x[0,3,2,7] <= 1
 move_0_7_32_13: x[0,1,3,8] + x[0,3,2,7] <= 1
 move_0_7_32_14: x[0,1,4,8] + x[0,3,2,7] <= 1
 move_0_7_32_20: x[0,2,0,8] + x[0,3,2,7] <= 1
 move_0_7_32_24: x[0,2,4,8] + x[0,3,2,7] <= 1
 move_0_7_32_40: x[0,3,2,7] + x[0,4,0,8] <= 1
 move_0_7_32_44: x[0,3,2,7] + x[0,4,4,8] <= 1
 move_0_7_33_00: x[0,0,0,8] + x[0,3,3,7] <= 1
 move_0_7_33_01: x[0,0,1,8] + x[0,3,3,7] <= 1
 move_0_7_33_02: x[0,0,2,8] + x[0,3,3,7] <= 1
 move_0_7_33_03: x[0,0,3,8] + x[0,3,3,7] <= 1
 move_0_7_33_04: x[0,0,4,8] + x[0,3,3,7] <= 1
 move_0_7_33_10: x[0,1,0,8] + x[0,3,3,7] <= 1
 move_0_7_33_11: x[0,1,1,8] + x[0,3,3,7] <= 1
 move_0_7_33_12: x[0,1,2,8] + x[0,3,3,7] <= 1
 move_0_7_33_14: x[0,1,4,8] + x[0,3,3,7] <= 1
 move_0_7_33_20: x[0,2,0,8] + x[0,3,3,7] <= 1
 move_0_7_33_21: x[0,2,1,8] + x[0,3,3,7] <= 1
 move_0_7_33_30: x[0,3,0,8] + x[0,3,3,7] <= 1
 move_0_7_33_40: x[0,3,3,7] + x[0,4,0,8] <= 1
 move_0_7_33_41: x[0,3,3,7] + x[0,4,1,8] <= 1
 move_0_7_34_00: x[0,0,0,8] + x[0,3,4,7] <= 1
 move_0_7_34_01: x[0,0,1,8] + x[0,3,4,7] <= 1
 move_0_7_34_02: x[0,0,2,8] + x[0,3,4,7] <= 1
 move_0_7_34_03: x[0,0,3,8] + x[0,3,4,7] <= 1
 move_0_7_34_04: x[0,0,4,8] + x[0,3,4,7] <= 1
 move_0_7_34_10: x[0,1,0,8] + x[0,3,4,7] <= 1
 move_0_7_34_11: x[0,1,1,8] + x[0,3,4,7] <= 1
 move_0_7_34_12: x[0,1,2,8] + x[0,3,4,7] <= 1
 move_0_7_34_13: x[0,1,3,8] + x[0,3,4,7] <= 1
 move_0_7_34_20: x[0,2,0,8] + x[0,3,4,7] <= 1
 move_0_7_34_21: x[0,2,1,8] + x[0,3,4,7] <= 1
 move_0_7_34_22: x[0,2,2,8] + x[0,3,4,7] <= 1
 move_0_7_34_30: x[0,3,0,8] + x[0,3,4,7] <= 1
 move_0_7_34_31: x[0,3,1,8] + x[0,3,4,7] <= 1
 move_0_7_34_40: x[0,3,4,7] + x[0,4,0,8] <= 1
 move_0_7_34_41: x[0,3,4,7] + x[0,4,1,8] <= 1
 move_0_7_34_42: x[0,3,4,7] + x[0,4,2,8] <= 1
 move_0_7_40_00: x[0,0,0,8] + x[0,4,0,7] <= 1
 move_0_7_40_01: x[0,0,1,8] + x[0,4,0,7] <= 1
 move_0_7_40_02: x[0,0,2,8] + x[0,4,0,7] <= 1
 move_0_7_40_03: x[0,0,3,8] + x[0,4,0,7] <= 1
 move_0_7_40_04: x[0,0,4,8] + x[0,4,0,7] <= 1
 move_0_7_40_10: x[0,1,0,8] + x[0,4,0,7] <= 1
 move_0_7_40_11: x[0,1,1,8] + x[0,4,0,7] <= 1
 move_0_7_40_12: x[0,1,2,8] + x[0,4,0,7] <= 1
 move_0_7_40_13: x[0,1,3,8] + x[0,4,0,7] <= 1
 move_0_7_40_14: x[0,1,4,8] + x[0,4,0,7] <= 1
 move_0_7_40_21: x[0,2,1,8] + x[0,4,0,7] <= 1
 move_0_7_40_22: x[0,2,2,8] + x[0,4,0,7] <= 1
 move_0_7_40_23: x[0,2,3,8] + x[0,4,0,7] <= 1
 move_0_7_40_24: x[0,2,4,8] + x[0,4,0,7] <= 1
 move_0_7_40_32: x[0,3,2,8] + x[0,4,0,7] <= 1
 move_0_7_40_33: x[0,3,3,8] + x[0,4,0,7] <= 1
 move_0_7_40_34: x[0,3,4,8] + x[0,4,0,7] <= 1
 move_0_7_40_43: x[0,4,0,7] + x[0,4,3,8] <= 1
 move_0_7_40_44: x[0,4,0,7] + x[0,4,4,8] <= 1
 move_0_7_41_00: x[0,0,0,8] + x[0,4,1,7] <= 1
 move_0_7_41_01: x[0,0,1,8] + x[0,4,1,7] <= 1
 move_0_7_41_02: x[0,0,2,8] + x[0,4,1,7] <= 1
 move_0_7_41_03: x[0,0,3,8] + x[0,4,1,7] <= 1
 move_0_7_41_04: x[0,0,4,8] + x[0,4,1,7] <= 1
 move_0_7_41_10: x[0,1,0,8] + x[0,4,1,7] <= 1
 move_0_7_41_11: x[0,1,1,8] + x[0,4,1,7] <= 1
 move_0_7_41_12: x[0,1,2,8] + x[0,4,1,7] <= 1
 move_0_7_41_13: x[0,1,3,8] + x[0,4,1,7] <= 1
 move_0_7_41_14: x[0,1,4,8] + x[0,4,1,7] <= 1
 move_0_7_41_20: x[0,2,0,8] + x[0,4,1,7] <= 1
 move_0_7_41_22: x[0,2,2,8] + x[0,4,1,7] <= 1
 move_0_7_41_23: x[0,2,3,8] + x[0,4,1,7] <= 1
 move_0_7_41_24: x[0,2,4,8] + x[0,4,1,7] <= 1
 move_0_7_41_33: x[0,3,3,8] + x[0,4,1,7] <= 1
 move_0_7_41_34: x[0,3,4,8] + x[0,4,1,7] <= 1
 move_0_7_41_44: x[0,4,1,7] + x[0,4,4,8] <= 1
 move_0_7_42_00: x[0,0,0,8] + x[0,4,2,7] <= 1
 move_0_7_42_01: x[0,0,1,8] + x[0,4,2,7] <= 1
 move_0_7_42_02: x[0,0,2,8] + x[0,4,2,7] <= 1
 move_0_7_42_03: x[0,0,3,8] + x[0,4,2,7] <= 1
 move_0_7_42_04: x[0,0,4,8] + x[0,4,2,7] <= 1
 move_0_7_42_10: x[0,1,0,8] + x[0,4,2,7] <= 1
 move_0_7_42_11: x[0,1,1,8] + x[0,4,2,7] <= 1
 move_0_7_42_12: x[0,1,2,8] + x[0,4,2,7] <= 1
 move_0_7_42_13: x[0,1,3,8] + x[0,4,2,7] <= 1
 move_0_7_42_14: x[0,1,4,8] + x[0,4,2,7] <= 1
 move_0_7_42_20: x[0,2,0,8] + x[0,4,2,7] <= 1
 move_0_7_42_21: x[0,2,1,8] + x[0,4,2,7] <= 1
 move_0_7_42_23: x[0,2,3,8] + x[0,4,2,7] <= 1
 move_0_7_42_24: x[0,2,4,8] + x[0,4,2,7] <= 1
 move_0_7_42_30: x[0,3,0,8] + x[0,4,2,7] <= 1
 move_0_7_42_34: x[0,3,4,8] + x[0,4,2,7] <= 1
 move_0_7_43_00: x[0,0,0,8] + x[0,4,3,7] <= 1
 move_0_7_43_01: x[0,0,1,8] + x[0,4,3,7] <= 1
 move_0_7_43_02: x[0,0,2,8] + x[0,4,3,7] <= 1
 move_0_7_43_03: x[0,0,3,8] + x[0,4,3,7] <= 1
 move_0_7_43_04: x[0,0,4,8] + x[0,4,3,7] <= 1
 move_0_7_43_10: x[0,1,0,8] + x[0,4,3,7] <= 1
 move_0_7_43_11: x[0,1,1,8] + x[0,4,3,7] <= 1
 move_0_7_43_12: x[0,1,2,8] + x[0,4,3,7] <= 1
 move_0_7_43_13: x[0,1,3,8] + x[0,4,3,7] <= 1
 move_0_7_43_14: x[0,1,4,8] + x[0,4,3,7] <= 1
 move_0_7_43_20: x[0,2,0,8] + x[0,4,3,7] <= 1
 move_0_7_43_21: x[0,2,1,8] + x[0,4,3,7] <= 1
 move_0_7_43_22: x[0,2,2,8] + x[0,4,3,7] <= 1
 move_0_7_43_24: x[0,2,4,8] + x[0,4,3,7] <= 1
 move_0_7_43_30: x[0,3,0,8] + x[0,4,3,7] <= 1
 move_0_7_43_31: x[0,3,1,8] + x[0,4,3,7] <= 1
 move_0_7_43_40: x[0,4,0,8] + x[0,4,3,7] <= 1
 move_0_7_44_00: x[0,0,0,8] + x[0,4,4,7] <= 1
 move_0_7_44_01: x[0,0,1,8] + x[0,4,4,7] <= 1
 move_0_7_44_02: x[0,0,2,8] + x[0,4,4,7] <= 1
 move_0_7_44_03: x[0,0,3,8] + x[0,4,4,7] <= 1
 move_0_7_44_04: x[0,0,4,8] + x[0,4,4,7] <= 1
 move_0_7_44_10: x[0,1,0,8] + x[0,4,4,7] <= 1
 move_0_7_44_11: x[0,1,1,8] + x[0,4,4,7] <= 1
 move_0_7_44_12: x[0,1,2,8] + x[0,4,4,7] <= 1
 move_0_7_44_13: x[0,1,3,8] + x[0,4,4,7] <= 1
 move_0_7_44_14: x[0,1,4,8] + x[0,4,4,7] <= 1
 move_0_7_44_20: x[0,2,0,8] + x[0,4,4,7] <= 1
 move_0_7_44_21: x[0,2,1,8] + x[0,4,4,7] <= 1
 move_0_7_44_22: x[0,2,2,8] + x[0,4,4,7] <= 1
 move_0_7_44_23: x[0,2,3,8] + x[0,4,4,7] <= 1
 move_0_7_44_30: x[0,3,0,8] + x[0,4,4,7] <= 1
 move_0_7_44_31: x[0,3,1,8] + x[0,4,4,7] <= 1
 move_0_7_44_32: x[0,3,2,8] + x[0,4,4,7] <= 1
 move_0_7_44_40: x[0,4,0,8] + x[0,4,4,7] <= 1
 move_0_7_44_41: x[0,4,1,8] + x[0,4,4,7] <= 1
 move_0_8_00_03: x[0,0,0,8] + x[0,0,3,9] <= 1
 move_0_8_00_04: x[0,0,0,8] + x[0,0,4,9] <= 1
 move_0_8_00_12: x[0,0,0,8] + x[0,1,2,9] <= 1
 move_0_8_00_13: x[0,0,0,8] + x[0,1,3,9] <= 1
 move_0_8_00_14: x[0,0,0,8] + x[0,1,4,9] <= 1
 move_0_8_00_21: x[0,0,0,8] + x[0,2,1,9] <= 1
 move_0_8_00_22: x[0,0,0,8] + x[0,2,2,9] <= 1
 move_0_8_00_23: x[0,0,0,8] + x[0,2,3,9] <= 1
 move_0_8_00_24: x[0,0,0,8] + x[0,2,4,9] <= 1
 move_0_8_00_30: x[0,0,0,8] + x[0,3,0,9] <= 1
 move_0_8_00_31: x[0,0,0,8] + x[0,3,1,9] <= 1
 move_0_8_00_32: x[0,0,0,8] + x[0,3,2,9] <= 1
 move_0_8_00_33: x[0,0,0,8] + x[0,3,3,9] <= 1
 move_0_8_00_34: x[0,0,0,8] + x[0,3,4,9] <= 1
 move_0_8_00_40: x[0,0,0,8] + x[0,4,0,9] <= 1
 move_0_8_00_41: x[0,0,0,8] + x[0,4,1,9] <= 1
 move_0_8_00_42: x[0,0,0,8] + x[0,4,2,9] <= 1
 move_0_8_00_43: x[0,0,0,8] + x[0,4,3,9] <= 1
 move_0_8_00_44: x[0,0,0,8] + x[0,4,4,9] <= 1
 move_0_8_01_04: x[0,0,1,8] + x[0,0,4,9] <= 1
 move_0_8_01_13: x[0,0,1,8] + x[0,1,3,9] <= 1
 move_0_8_01_14: x[0,0,1,8] + x[0,1,4,9] <= 1
 move_0_8_01_20: x[0,0,1,8] + x[0,2,0,9] <= 1
 move_0_8_01_22: x[0,0,1,8] + x[0,2,2,9] <= 1
 move_0_8_01_23: x[0,0,1,8] + x[0,2,3,9] <= 1
 move_0_8_01_24: x[0,0,1,8] + x[0,2,4,9] <= 1
 move_0_8_01_30: x[0,0,1,8] + x[0,3,0,9] <= 1
 move_0_8_01_31: x[0,0,1,8] + x[0,3,1,9] <= 1
 move_0_8_01_32: x[0,0,1,8] + x[0,3,2,9] <= 1
 move_0_8_01_33: x[0,0,1,8] + x[0,3,3,9] <= 1
 move_0_8_01_34: x[0,0,1,8] + x[0,3,4,9] <= 1
 move_0_8_01_40: x[0,0,1,8] + x[0,4,0,9] <= 1
 move_0_8_01_41: x[0,0,1,8] + x[0,4,1,9] <= 1
 move_0_8_01_42: x[0,0,1,8] + x[0,4,2,9] <= 1
 move_0_8_01_43: x[0,0,1,8] + x[0,4,3,9] <= 1
 move_0_8_01_44: x[0,0,1,8] + x[0,4,4,9] <= 1
 move_0_8_02_10: x[0,0,2,8] + x[0,1,0,9] <= 1
 move_0_8_02_14: x[0,0,2,8] + x[0,1,4,9] <= 1
 move_0_8_02_20: x[0,0,2,8] + x[0,2,0,9] <= 1
 move_0_8_02_21: x[0,0,2,8] + x[0,2,1,9] <= 1
 move_0_8_02_23: x[0,0,2,8] + x[0,2,3,9] <= 1
 move_0_8_02_24: x[0,0,2,8] + x[0,2,4,9] <= 1
 move_0_8_02_30: x[0,0,2,8] + x[0,3,0,9] <= 1
 move_0_8_02_31: x[0,0,2,8] + x[0,3,1,9] <= 1
 move_0_8_02_32: x[0,0,2,8] + x[0,3,2,9] <= 1
 move_0_8_02_33: x[0,0,2,8] + x[0,3,3,9] <= 1
 move_0_8_02_34: x[0,0,2,8] + x[0,3,4,9] <= 1
 move_0_8_02_40: x[0,0,2,8] + x[0,4,0,9] <= 1
 move_0_8_02_41: x[0,0,2,8] + x[0,4,1,9] <= 1
 move_0_8_02_42: x[0,0,2,8] + x[0,4,2,9] <= 1
 move_0_8_02_43: x[0,0,2,8] + x[0,4,3,9] <= 1
 move_0_8_02_44: x[0,0,2,8] + x[0,4,4,9] <= 1
 move_0_8_03_00: x[0,0,0,9] + x[0,0,3,8] <= 1
 move_0_8_03_10: x[0,0,3,8] + x[0,1,0,9] <= 1
 move_0_8_03_11: x[0,0,3,8] + x[0,1,1,9] <= 1
 move_0_8_03_20: x[0,0,3,8] + x[0,2,0,9] <= 1
 move_0_8_03_21: x[0,0,3,8] + x[0,2,1,9] <= 1
 move_0_8_03_22: x[0,0,3,8] + x[0,2,2,9] <= 1
 move_0_8_03_24: x[0,0,3,8] + x[0,2,4,9] <= 1
 move_0_8_03_30: x[0,0,3,8] + x[0,3,0,9] <= 1
 move_0_8_03_31: x[0,0,3,8] + x[0,3,1,9] <= 1
 move_0_8_03_32: x[0,0,3,8] + x[0,3,2,9] <= 1
 move_0_8_03_33: x[0,0,3,8] + x[0,3,3,9] <= 1
 move_0_8_03_34: x[0,0,3,8] + x[0,3,4,9] <= 1
 move_0_8_03_40: x[0,0,3,8] + x[0,4,0,9] <= 1
 move_0_8_03_41: x[0,0,3,8] + x[0,4,1,9] <= 1
 move_0_8_03_42: x[0,0,3,8] + x[0,4,2,9] <= 1
 move_0_8_03_43: x[0,0,3,8] + x[0,4,3,9] <= 1
 move_0_8_03_44: x[0,0,3,8] + x[0,4,4,9] <= 1
 move_0_8_04_00: x[0,0,0,9] + x[0,0,4,8] <= 1
 move_0_8_04_01: x[0,0,1,9] + x[0,0,4,8] <= 1
 move_0_8_04_10: x[0,0,4,8] + x[0,1,0,9] <= 1
 move_0_8_04_11: x[0,0,4,8] + x[0,1,1,9] <= 1
 move_0_8_04_12: x[0,0,4,8] + x[0,1,2,9] <= 1
 move_0_8_04_20: x[0,0,4,8] + x[0,2,0,9] <= 1
 move_0_8_04_21: x[0,0,4,8] + x[0,2,1,9] <= 1
 move_0_8_04_22: x[0,0,4,8] + x[0,2,2,9] <= 1
 move_0_8_04_23: x[0,0,4,8] + x[0,2,3,9] <= 1
 move_0_8_04_30: x[0,0,4,8] + x[0,3,0,9] <= 1
 move_0_8_04_31: x[0,0,4,8] + x[0,3,1,9] <= 1
 move_0_8_04_32: x[0,0,4,8] + x[0,3,2,9] <= 1
 move_0_8_04_33: x[0,0,4,8] + x[0,3,3,9] <= 1
 move_0_8_04_34: x[0,0,4,8] + x[0,3,4,9] <= 1
 move_0_8_04_40: x[0,0,4,8] + x[0,4,0,9] <= 1
 move_0_8_04_41: x[0,0,4,8] + x[0,4,1,9] <= 1
 move_0_8_04_42: x[0,0,4,8] + x[0,4,2,9] <= 1
 move_0_8_04_43: x[0,0,4,8] + x[0,4,3,9] <= 1
 move_0_8_04_44: x[0,0,4,8] + x[0,4,4,9] <= 1
 move_0_8_10_02: x[0,0,2,9] + x[0,1,0,8] <= 1
 move_0_8_10_03: x[0,0,3,9] + x[0,1,0,8] <= 1
 move_0_8_10_04: x[0,0,4,9] + x[0,1,0,8] <= 1
 move_0_8_10_13: x[0,1,0,8] + x[0,1,3,9] <= 1
 move_0_8_10_14: x[0,1,0,8] + x[0,1,4,9] <= 1
 move_0_8_10_22: x[0,1,0,8] + x[0,2,2,9] <= 1
 move_0_8_10_23: x[0,1,0,8] + x[0,2,3,9] <= 1
 move_0_8_10_24: x[0,1,0,8] + x[0,2,4,9] <= 1
 move_0_8_10_31: x[0,1,0,8] + x[0,3,1,9] <= 1
 move_0_8_10_32: x[0,1,0,8] + x[0,3,2,9] <= 1
 move_0_8_10_33: x[0,1,0,8] + x[0,3,3,9] <= 1
 move_0_8_10_34: x[0,1,0,8] + x[0,3,4,9] <= 1
 move_0_8_10_40: x[0,1,0,8] + x[0,4,0,9] <= 1
 move_0_8_10_41: x[0,1,0,8] + x[0,4,1,9] <= 1
 move_0_8_10_42: x[0,1,0,8] + x[0,4,2,9] <= 1
 move_0_8_10_43: x[0,1,0,8] + x[0,4,3,9] <= 1
 move_0_8_10_44: x[0,1,0,8] + x[0,4,4,9] <= 1
 move_0_8_11_03: x[0,0,3,9] + x[0,1,1,8] <= 1
 move_0_8_11_04: x[0,0,4,9] + x[0,1,1,8] <= 1
 move_0_8_11_14: x[0,1,1,8] + x[0,1,4,9] <= 1
 move_0_8_11_23: x[0,1,1,8] + x[0,2,3,9] <= 1
 move_0_8_11_24: x[0,1,1,8] + x[0,2,4,9] <= 1
 move_0_8_11_30: x[0,1,1,8] + x[0,3,0,9] <= 1
 move_0_8_11_32: x[0,1,1,8] + x[0,3,2,9] <= 1
 move_0_8_11_33: x[0,1,1,8] + x[0,3,3,9] <= 1
 move_0_8_11_34: x[0,1,1,8] + x[0,3,4,9] <= 1
 move_0_8_11_40: x[0,1,1,8] + x[0,4,0,9] <= 1
 move_0_8_11_41: x[0,1,1,8] + x[0,4,1,9] <= 1
 move_0_8_11_42: x[0,1,1,8] + x[0,4,2,9] <= 1
 move_0_8_11_43: x[0,1,1,8] + x[0,4,3,9] <= 1
 move_0_8_11_44: x[0,1,1,8] + x[0,4,4,9] <= 1
 move_0_8_12_00: x[0,0,0,9] + x[0,1,2,8] <= 1
 move_0_8_12_04: x[0,0,4,9] + x[0,1,2,8] <= 1
 move_0_8_12_20: x[0,1,2,8] + x[0,2,0,9] <= 1
 move_0_8_12_24: x[0,1,2,8] + x[0,2,4,9] <= 1
 move_0_8_12_30: x[0,1,2,8] + x[0,3,0,9] <= 1
 move_0_8_12_31: x[0,1,2,8] + x[0,3,1,9] <= 1
 move_0_8_12_33: x[0,1,2,8] + x[0,3,3,9] <= 1
 move_0_8_12_34: x[0,1,2,8] + x[0,3,4,9] <= 1
 move_0_8_12_40: x[0,1,2,8] + x[0,4,0,9] <= 1
 move_0_8_12_41: x[0,1,2,8] + x[0,4,1,9] <= 1
 move_0_8_12_42: x[0,1,2,8] + x[0,4,2,9] <= 1
 move_0_8_12_43: x[0,1,2,8] + x[0,4,3,9] <= 1
 move_0_8_12_44: x[0,1,2,8] + x[0,4,4,9] <= 1
 move_0_8_13_00: x[0,0,0,9] + x[0,1,3,8] <= 1
 move_0_8_13_01: x[0,0,1,9] + x[0,1,3,8] <= 1
 move_0_8_13_10: x[0,1,0,9] + x[0,1,3,8] <= 1
 move_0_8_13_20: x[0,1,3,8] + x[0,2,0,9] <= 1
 move_0_8_13_21: x[0,1,3,8] + x[0,2,1,9] <= 1
 move_0_8_13_30: x[0,1,3,8] + x[0,3,0,9] <= 1
 move_0_8_13_31: x[0,1,3,8] + x[0,3,1,9] <= 1
 move_0_8_13_32: x[0,1,3,8] + x[0,3,2,9] <= 1
 move_0_8_13_34: x[0,1,3,8] + x[0,3,4,9] <= 1
 move_0_8_13_40: x[0,1,3,8] + x[0,4,0,9] <= 1
 move_0_8_13_41: x[0,1,3,8] + x[0,4,1,9] <= 1
 move_0_8_13_42: x[0,1,3,8] + x[0,4,2,9] <= 1
 move_0_8_13_43: x[0,1,3,8] + x[0,4,3,9] <= 1
 move_0_8_13_44: x[0,1,3,8] + x[0,4,4,9] <= 1
 move_0_8_14_00: x[0,0,0,9] + x[0,1,4,8] <= 1
 move_0_8_14_01: x[0,0,1,9] + x[0,1,4,8] <= 1
 move_0_8_14_02: x[0,0,2,9] + x[0,1,4,8] <= 1
 move_0_8_14_10: x[0,1,0,9] + x[0,1,4,8] <= 1
 move_0_8_14_11: x[0,1,1,9] + x[0,1,4,8] <= 1
 move_0_8_14_20: x[0,1,4,8] + x[0,2,0,9] <= 1
 move_0_8_14_21: x[0,1,4,8] + x[0,2,1,9] <= 1
 move_0_8_14_22: x[0,1,4,8] + x[0,2,2,9] <= 1
 move_0_8_14_30: x[0,1,4,8] + x[0,3,0,9] <= 1
 move_0_8_14_31: x[0,1,4,8] + x[0,3,1,9] <= 1
 move_0_8_14_32: x[0,1,4,8] + x[0,3,2,9] <= 1
 move_0_8_14_33: x[0,1,4,8] + x[0,3,3,9] <= 1
 move_0_8_14_40: x[0,1,4,8] + x[0,4,0,9] <= 1
 move_0_8_14_41: x[0,1,4,8] + x[0,4,1,9] <= 1
 move_0_8_14_42: x[0,1,4,8] + x[0,4,2,9] <= 1
 move_0_8_14_43: x[0,1,4,8] + x[0,4,3,9] <= 1
 move_0_8_14_44: x[0,1,4,8] + x[0,4,4,9] <= 1
 move_0_8_20_01: x[0,0,1,9] + x[0,2,0,8] <= 1
 move_0_8_20_02: x[0,0,2,9] + x[0,2,0,8] <= 1
 move_0_8_20_03: x[0,0,3,9] + x[0,2,0,8] <= 1
 move_0_8_20_04: x[0,0,4,9] + x[0,2,0,8] <= 1
 move_0_8_20_12: x[0,1,2,9] + x[0,2,0,8] <= 1
 move_0_8_20_13: x[0,1,3,9] + x[0,2,0,8] <= 1
 move_0_8_20_14: x[0,1,4,9] + x[0,2,0,8] <= 1
 move_0_8_20_23: x[0,2,0,8] + x[0,2,3,9] <= 1
 move_0_8_20_24: x[0,2,0,8] + x[0,2,4,9] <= 1
 move_0_8_20_32: x[0,2,0,8] + x[0,3,2,9] <= 1
 move_0_8_20_33: x[0,2,0,8] + x[0,3,3,9] <= 1
 move_0_8_20_34: x[0,2,0,8] + x[0,3,4,9] <= 1
 move_0_8_20_41: x[0,2,0,8] + x[0,4,1,9] <= 1
 move_0_8_20_42: x[0,2,0,8] + x[0,4,2,9] <= 1
 move_0_8_20_43: x[0,2,0,8] + x[0,4,3,9] <= 1
 move_0_8_20_44: x[0,2,0,8] + x[0,4,4,9] <= 1
 move_0_8_21_00: x[0,0,0,9] + x[0,2,1,8] <= 1
 move_0_8_21_02: x[0,0,2,9] + x[0,2,1,8] <= 1
 move_0_8_21_03: x[0,0,3,9] + x[0,2,1,8] <= 1
 move_0_8_21_04: x[0,0,4,9] + x[0,2,1,8] <= 1
 move_0_8_21_13: x[0,1,3,9] + x[0,2,1,8] <= 1
 move_0_8_21_14: x[0,1,4,9] + x[0,2,1,8] <= 1
 move_0_8_21_24: x[0,2,1,8] + x[0,2,4,9] <= 1
 move_0_8_21_33: x[0,2,1,8] + x[0,3,3,9] <= 1
 move_0_8_21_34: x[0,2,1,8] + x[0,3,4,9] <= 1
 move_0_8_21_40: x[0,2,1,8] + x[0,4,0,9] <= 1
 move_0_8_21_42: x[0,2,1,8] + x[0,4,2,9] <= 1
 move_0_8_21_43: x[0,2,1,8] + x[0,4,3,9] <= 1
 move_0_8_21_44: x[0,2,1,8] + x[0,4,4,9] <= 1
 move_0_8_22_00: x[0,0,0,9] + x[0,2,2,8] <= 1
 move_0_8_22_01: x[0,0,1,9] + x[0,2,2,8] <= 1
 move_0_8_22_03: x[0,0,3,9] + x[0,2,2,8] <= 1
 move_0_8_22_04: x[0,0,4,9] + x[0,2,2,8] <= 1
 move_0_8_22_10: x[0,1,0,9] + x[0,2,2,8] <= 1
 move_0_8_22_14: x[0,1,4,9] + x[0,2,2,8] <= 1
 move_0_8_22_30: x[0,2,2,8] + x[0,3,0,9] <= 1
 move_0_8_22_34: x[0,2,2,8] + x[0,3,4,9] <= 1
 move_0_8_22_40: x[0,2,2,8] + x[0,4,0,9] <= 1
 move_0_8_22_41: x[0,2,2,8] + x[0,4,1,9] <= 1
 move_0_8_22_43: x[0,2,2,8] + x[0,4,3,9] <= 1
 move_0_8_22_44: x[0,2,2,8] + x[0,4,4,9] <= 1
 move_0_8_23_00: x[0,0,0,9] + x[0,2,3,8] <= 1
 move_0_8_23_01: x[0,0,1,9] + x[0,2,3,8] <= 1
 move_0_8_23_02: x[0,0,2,9] + x[0,2,3,8] <= 1
 move_0_8_23_04: x[0,0,4,9] + x[0,2,3,8] <= 1
 move_0_8_23_10: x[0,1,0,9] + x[0,2,3,8] <= 1
 move_0_8_23_11: x[0,1,1,9] + x[0,2,3,8] <= 1
 move_0_8_23_20: x[0,2,0,9] + x[0,2,3,8] <= 1
 move_0_8_23_30: x[0,2,3,8] + x[0,3,0,9] <= 1
 move_0_8_23_31: x[0,2,3,8] + x[0,3,1,9] <= 1
 move_0_8_23_40: x[0,2,3,8] + x[0,4,0,9] <= 1
 move_0_8_23_41: x[0,2,3,8] + x[0,4,1,9] <= 1
 move_0_8_23_42: x[0,2,3,8] + x[0,4,2,9] <= 1
 move_0_8_23_44: x[0,2,3,8] + x[0,4,4,9] <= 1
 move_0_8_24_00: x[0,0,0,9] + x[0,2,4,8] <= 1
 move_0_8_24_01: x[0,0,1,9] + x[0,2,4,8] <= 1
 move_0_8_24_02: x[0,0,2,9] + x[0,2,4,8] <= 1
 move_0_8_24_03: x[0,0,3,9] + x[0,2,4,8] <= 1
 move_0_8_24_10: x[0,1,0,9] + x[0,2,4,8] <= 1
 move_0_8_24_11: x[0,1,1,9] + x[0,2,4,8] <= 1
 move_0_8_24_12: x[0,1,2,9] + x[0,2,4,8] <= 1
 move_0_8_24_20: x[0,2,0,9] + x[0,2,4,8] <= 1
 move_0_8_24_21: x[0,2,1,9] + x[0,2,4,8] <= 1
 move_0_8_24_30: x[0,2,4,8] + x[0,3,0,9] <= 1
 move_0_8_24_31: x[0,2,4,8] + x[0,3,1,9] <= 1
 move_0_8_24_32: x[0,2,4,8] + x[0,3,2,9] <= 1
 move_0_8_24_40: x[0,2,4,8] + x[0,4,0,9] <= 1
 move_0_8_24_41: x[0,2,4,8] + x[0,4,1,9] <= 1
 move_0_8_24_42: x[0,2,4,8] + x[0,4,2,9] <= 1
 move_0_8_24_43: x[0,2,4,8] + x[0,4,3,9] <= 1
 move_0_8_30_00: x[0,0,0,9] + x[0,3,0,8] <= 1
 move_0_8_30_01: x[0,0,1,9] + x[0,3,0,8] <= 1
 move_0_8_30_02: x[0,0,2,9] + x[0,3,0,8] <= 1
 move_0_8_30_03: x[0,0,3,9] + x[0,3,0,8] <= 1
 move_0_8_30_04: x[0,0,4,9] + x[0,3,0,8] <= 1
 move_0_8_30_11: x[0,1,1,9] + x[0,3,0,8] <= 1
 move_0_8_30_12: x[0,1,2,9] + x[0,3,0,8] <= 1
 move_0_8_30_13: x[0,1,3,9] + x[0,3,0,8] <= 1
 move_0_8_30_14: x[0,1,4,9] + x[0,3,0,8] <= 1
 move_0_8_30_22: x[0,2,2,9] + x[0,3,0,8] <= 1
 move_0_8_30_23: x[0,2,3,9] + x[0,3,0,8] <= 1
 move_0_8_30_24: x[0,2,4,9] + x[0,3,0,8] <= 1
 move_0_8_30_33: x[0,3,0,8] + x[0,3,3,9] <= 1
 move_0_8_30_34: x[0,3,0,8] + x[0,3,4,9] <= 1
 move_0_8_30_42: x[0,3,0,8] + x[0,4,2,9] <= 1
 move_0_8_30_43: x[0,3,0,8] + x[0,4,3,9] <= 1
 move_0_8_30_44: x[0,3,0,8] + x[0,4,4,9] <= 1
 move_0_8_31_00: x[0,0,0,9] + x[0,3,1,8] <= 1
 move_0_8_31_01: x[0,0,1,9] + x[0,3,1,8] <= 1
 move_0_8_31_02: x[0,0,2,9] + x[0,3,1,8] <= 1
 move_0_8_31_03: x[0,0,3,9] + x[0,3,1,8] <= 1
 move_0_8_31_04: x[0,0,4,9] + x[0,3,1,8] <= 1
 move_0_8_31_10: x[0,1,0,9] + x[0,3,1,8] <= 1
 move_0_8_31_12: x[0,1,2,9] + x[0,3,1,8] <= 1
 move_0_8_31_13: x[0,1,3,9] + x[0,3,1,8] <= 1
 move_0_8_31_14: x[0,1,4,9] + x[0,3,1,8] <= 1
 move_0_8_31_23: x[0,2,3,9] + x[0,3,1,8] <= 1
 move_0_8_31_24: x[0,2,4,9] + x[0,3,1,8] <= 1
 move_0_8_31_34: x[0,3,1,8] + x[0,3,4,9] <= 1
 move_0_8_31_43: x[0,3,1,8] + x[0,4,3,9] <= 1
 move_0_8_31_44: x[0,3,1,8] + x[0,4,4,9] <= 1
 move_0_8_32_00: x[0,0,0,9] + x[0,3,2,8] <= 1
 move_0_8_32_01: x[0,0,1,9] + x[0,3,2,8] <= 1
 move_0_8_32_02: x[0,0,2,9] + x[0,3,2,8] <= 1
 move_0_8_32_03: x[0,0,3,9] + x[0,3,2,8] <= 1
 move_0_8_32_04: x[0,0,4,9] + x[0,3,2,8] <= 1
 move_0_8_32_10: x[0,1,0,9] + x[0,3,2,8] <= 1
 move_0_8_32_11: x[0,1,1,9] + x[0,3,2,8] <= 1
 move_0_8_32_13: x[0,1,3,9] + x[0,3,2,8] <= 1
 move_0_8_32_14: x[0,1,4,9] + x[0,3,2,8] <= 1
 move_0_8_32_20: x[0,2,0,9] + x[0,3,2,8] <= 1
 move_0_8_32_24: x[0,2,4,9] + x[0,3,2,8] <= 1
 move_0_8_32_40: x[0,3,2,8] + x[0,4,0,9] <= 1
 move_0_8_32_44: x[0,3,2,8] + x[0,4,4,9] <= 1
 move_0_8_33_00: x[0,0,0,9] + x[0,3,3,8] <= 1
 move_0_8_33_01: x[0,0,1,9] + x[0,3,3,8] <= 1
 move_0_8_33_02: x[0,0,2,9] + x[0,3,3,8] <= 1
 move_0_8_33_03: x[0,0,3,9] + x[0,3,3,8] <= 1
 move_0_8_33_04: x[0,0,4,9] + x[0,3,3,8] <= 1
 move_0_8_33_10: x[0,1,0,9] + x[0,3,3,8] <= 1
 move_0_8_33_11: x[0,1,1,9] + x[0,3,3,8] <= 1
 move_0_8_33_12: x[0,1,2,9] + x[0,3,3,8] <= 1
 move_0_8_33_14: x[0,1,4,9] + x[0,3,3,8] <= 1
 move_0_8_33_20: x[0,2,0,9] + x[0,3,3,8] <= 1
 move_0_8_33_21: x[0,2,1,9] + x[0,3,3,8] <= 1
 move_0_8_33_30: x[0,3,0,9] + x[0,3,3,8] <= 1
 move_0_8_33_40: x[0,3,3,8] + x[0,4,0,9] <= 1
 move_0_8_33_41: x[0,3,3,8] + x[0,4,1,9] <= 1
 move_0_8_34_00: x[0,0,0,9] + x[0,3,4,8] <= 1
 move_0_8_34_01: x[0,0,1,9] + x[0,3,4,8] <= 1
 move_0_8_34_02: x[0,0,2,9] + x[0,3,4,8] <= 1
 move_0_8_34_03: x[0,0,3,9] + x[0,3,4,8] <= 1
 move_0_8_34_04: x[0,0,4,9] + x[0,3,4,8] <= 1
 move_0_8_34_10: x[0,1,0,9] + x[0,3,4,8] <= 1
 move_0_8_34_11: x[0,1,1,9] + x[0,3,4,8] <= 1
 move_0_8_34_12: x[0,1,2,9] + x[0,3,4,8] <= 1
 move_0_8_34_13: x[0,1,3,9] + x[0,3,4,8] <= 1
 move_0_8_34_20: x[0,2,0,9] + x[0,3,4,8] <= 1
 move_0_8_34_21: x[0,2,1,9] + x[0,3,4,8] <= 1
 move_0_8_34_22: x[0,2,2,9] + x[0,3,4,8] <= 1
 move_0_8_34_30: x[0,3,0,9] + x[0,3,4,8] <= 1
 move_0_8_34_31: x[0,3,1,9] + x[0,3,4,8] <= 1
 move_0_8_34_40: x[0,3,4,8] + x[0,4,0,9] <= 1
 move_0_8_34_41: x[0,3,4,8] + x[0,4,1,9] <= 1
 move_0_8_34_42: x[0,3,4,8] + x[0,4,2,9] <= 1
 move_0_8_40_00: x[0,0,0,9] + x[0,4,0,8] <= 1
 move_0_8_40_01: x[0,0,1,9] + x[0,4,0,8] <= 1
 move_0_8_40_02: x[0,0,2,9] + x[0,4,0,8] <= 1
 move_0_8_40_03: x[0,0,3,9] + x[0,4,0,8] <= 1
 move_0_8_40_04: x[0,0,4,9] + x[0,4,0,8] <= 1
 move_0_8_40_10: x[0,1,0,9] + x[0,4,0,8] <= 1
 move_0_8_40_11: x[0,1,1,9] + x[0,4,0,8] <= 1
 move_0_8_40_12: x[0,1,2,9] + x[0,4,0,8] <= 1
 move_0_8_40_13: x[0,1,3,9] + x[0,4,0,8] <= 1
 move_0_8_40_14: x[0,1,4,9] + x[0,4,0,8] <= 1
 move_0_8_40_21: x[0,2,1,9] + x[0,4,0,8] <= 1
 move_0_8_40_22: x[0,2,2,9] + x[0,4,0,8] <= 1
 move_0_8_40_23: x[0,2,3,9] + x[0,4,0,8] <= 1
 move_0_8_40_24: x[0,2,4,9] + x[0,4,0,8] <= 1
 move_0_8_40_32: x[0,3,2,9] + x[0,4,0,8] <= 1
 move_0_8_40_33: x[0,3,3,9] + x[0,4,0,8] <= 1
 move_0_8_40_34: x[0,3,4,9] + x[0,4,0,8] <= 1
 move_0_8_40_43: x[0,4,0,8] + x[0,4,3,9] <= 1
 move_0_8_40_44: x[0,4,0,8] + x[0,4,4,9] <= 1
 move_0_8_41_00: x[0,0,0,9] + x[0,4,1,8] <= 1
 move_0_8_41_01: x[0,0,1,9] + x[0,4,1,8] <= 1
 move_0_8_41_02: x[0,0,2,9] + x[0,4,1,8] <= 1
 move_0_8_41_03: x[0,0,3,9] + x[0,4,1,8] <= 1
 move_0_8_41_04: x[0,0,4,9] + x[0,4,1,8] <= 1
 move_0_8_41_10: x[0,1,0,9] + x[0,4,1,8] <= 1
 move_0_8_41_11: x[0,1,1,9] + x[0,4,1,8] <= 1
 move_0_8_41_12: x[0,1,2,9] + x[0,4,1,8] <= 1
 move_0_8_41_13: x[0,1,3,9] + x[0,4,1,8] <= 1
 move_0_8_41_14: x[0,1,4,9] + x[0,4,1,8] <= 1
 move_0_8_41_20: x[0,2,0,9] + x[0,4,1,8] <= 1
 move_0_8_41_22: x[0,2,2,9] + x[0,4,1,8] <= 1
 move_0_8_41_23: x[0,2,3,9] + x[0,4,1,8] <= 1
 move_0_8_41_24: x[0,2,4,9] + x[0,4,1,8] <= 1
 move_0_8_41_33: x[0,3,3,9] + x[0,4,1,8] <= 1
 move_0_8_41_34: x[0,3,4,9] + x[0,4,1,8] <= 1
 move_0_8_41_44: x[0,4,1,8] + x[0,4,4,9] <= 1
 move_0_8_42_00: x[0,0,0,9] + x[0,4,2,8] <= 1
 move_0_8_42_01: x[0,0,1,9] + x[0,4,2,8] <= 1
 move_0_8_42_02: x[0,0,2,9] + x[0,4,2,8] <= 1
 move_0_8_42_03: x[0,0,3,9] + x[0,4,2,8] <= 1
 move_0_8_42_04: x[0,0,4,9] + x[0,4,2,8] <= 1
 move_0_8_42_10: x[0,1,0,9] + x[0,4,2,8] <= 1
 move_0_8_42_11: x[0,1,1,9] + x[0,4,2,8] <= 1
 move_0_8_42_12: x[0,1,2,9] + x[0,4,2,8] <= 1
 move_0_8_42_13: x[0,1,3,9] + x[0,4,2,8] <= 1
 move_0_8_42_14: x[0,1,4,9] + x[0,4,2,8] <= 1
 move_0_8_42_20: x[0,2,0,9] + x[0,4,2,8] <= 1
 move_0_8_42_21: x[0,2,1,9] + x[0,4,2,8] <= 1
 move_0_8_42_23: x[0,2,3,9] + x[0,4,2,8] <= 1
 move_0_8_42_24: x[0,2,4,9] + x[0,4,2,8] <= 1
 move_0_8_42_30: x[0,3,0,9] + x[0,4,2,8] <= 1
 move_0_8_42_34: x[0,3,4,9] + x[0,4,2,8] <= 1
 move_0_8_43_00: x[0,0,0,9] + x[0,4,3,8] <= 1
 move_0_8_43_01: x[0,0,1,9] + x[0,4,3,8] <= 1
 move_0_8_43_02: x[0,0,2,9] + x[0,4,3,8] <= 1
 move_0_8_43_03: x[0,0,3,9] + x[0,4,3,8] <= 1
 move_0_8_43_04: x[0,0,4,9] + x[0,4,3,8] <= 1
 move_0_8_43_10: x[0,1,0,9] + x[0,4,3,8] <= 1
 move_0_8_43_11: x[0,1,1,9] + x[0,4,3,8] <= 1
 move_0_8_43_12: x[0,1,2,9] + x[0,4,3,8] <= 1
 move_0_8_43_13: x[0,1,3,9] + x[0,4,3,8] <= 1
 move_0_8_43_14: x[0,1,4,9] + x[0,4,3,8] <= 1
 move_0_8_43_20: x[0,2,0,9] + x[0,4,3,8] <= 1
 move_0_8_43_21: x[0,2,1,9] + x[0,4,3,8] <= 1
 move_0_8_43_22: x[0,2,2,9] + x[0,4,3,8] <= 1
 move_0_8_43_24: x[0,2,4,9] + x[0,4,3,8] <= 1
 move_0_8_43_30: x[0,3,0,9] + x[0,4,3,8] <= 1
 move_0_8_43_31: x[0,3,1,9] + x[0,4,3,8] <= 1
 move_0_8_43_40: x[0,4,0,9] + x[0,4,3,8] <= 1
 move_0_8_44_00: x[0,0,0,9] + x[0,4,4,8] <= 1
 move_0_8_44_01: x[0,0,1,9] + x[0,4,4,8] <= 1
 move_0_8_44_02: x[0,0,2,9] + x[0,4,4,8] <= 1
 move_0_8_44_03: x[0,0,3,9] + x[0,4,4,8] <= 1
 move_0_8_44_04: x[0,0,4,9] + x[0,4,4,8] <= 1
 move_0_8_44_10: x[0,1,0,9] + x[0,4,4,8] <= 1
 move_0_8_44_11: x[0,1,1,9] + x[0,4,4,8] <= 1
 move_0_8_44_12: x[0,1,2,9] + x[0,4,4,8] <= 1
 move_0_8_44_13: x[0,1,3,9] + x[0,4,4,8] <= 1
 move_0_8_44_14: x[0,1,4,9] + x[0,4,4,8] <= 1
 move_0_8_44_20: x[0,2,0,9] + x[0,4,4,8] <= 1
 move_0_8_44_21: x[0,2,1,9] + x[0,4,4,8] <= 1
 move_0_8_44_22: x[0,2,2,9] + x[0,4,4,8] <= 1
 move_0_8_44_23: x[0,2,3,9] + x[0,4,4,8] <= 1
 move_0_8_44_30: x[0,3,0,9] + x[0,4,4,8] <= 1
 move_0_8_44_31: x[0,3,1,9] + x[0,4,4,8] <= 1
 move_0_8_44_32: x[0,3,2,9] + x[0,4,4,8] <= 1
 move_0_8_44_40: x[0,4,0,9] + x[0,4,4,8] <= 1
 move_0_8_44_41: x[0,4,1,9] + x[0,4,4,8] <= 1
 move_1_0_00_03: x[1,0,0,0] + x[1,0,3,1] <= 1
 move_1_0_00_04: x[1,0,0,0] + x[1,0,4,1] <= 1
 move_1_0_00_12: x[1,0,0,0] + x[1,1,2,1] <= 1
 move_1_0_00_13: x[1,0,0,0] + x[1,1,3,1] <= 1
 move_1_0_00_14: x[1,0,0,0] + x[1,1,4,1] <= 1
 move_1_0_00_21: x[1,0,0,0] + x[1,2,1,1] <= 1
 move_1_0_00_22: x[1,0,0,0] + x[1,2,2,1] <= 1
 move_1_0_00_23: x[1,0,0,0] + x[1,2,3,1] <= 1
 move_1_0_00_24: x[1,0,0,0] + x[1,2,4,1] <= 1
 move_1_0_00_30: x[1,0,0,0] + x[1,3,0,1] <= 1
 move_1_0_00_31: x[1,0,0,0] + x[1,3,1,1] <= 1
 move_1_0_00_32: x[1,0,0,0] + x[1,3,2,1] <= 1
 move_1_0_00_33: x[1,0,0,0] + x[1,3,3,1] <= 1
 move_1_0_00_34: x[1,0,0,0] + x[1,3,4,1] <= 1
 move_1_0_00_40: x[1,0,0,0] + x[1,4,0,1] <= 1
 move_1_0_00_41: x[1,0,0,0] + x[1,4,1,1] <= 1
 move_1_0_00_42: x[1,0,0,0] + x[1,4,2,1] <= 1
 move_1_0_00_43: x[1,0,0,0] + x[1,4,3,1] <= 1
 move_1_0_00_44: x[1,0,0,0] + x[1,4,4,1] <= 1
 move_1_0_01_04: x[1,0,1,0] + x[1,0,4,1] <= 1
 move_1_0_01_13: x[1,0,1,0] + x[1,1,3,1] <= 1
 move_1_0_01_14: x[1,0,1,0] + x[1,1,4,1] <= 1
 move_1_0_01_20: x[1,0,1,0] + x[1,2,0,1] <= 1
 move_1_0_01_22: x[1,0,1,0] + x[1,2,2,1] <= 1
 move_1_0_01_23: x[1,0,1,0] + x[1,2,3,1] <= 1
 move_1_0_01_24: x[1,0,1,0] + x[1,2,4,1] <= 1
 move_1_0_01_30: x[1,0,1,0] + x[1,3,0,1] <= 1
 move_1_0_01_31: x[1,0,1,0] + x[1,3,1,1] <= 1
 move_1_0_01_32: x[1,0,1,0] + x[1,3,2,1] <= 1
 move_1_0_01_33: x[1,0,1,0] + x[1,3,3,1] <= 1
 move_1_0_01_34: x[1,0,1,0] + x[1,3,4,1] <= 1
 move_1_0_01_40: x[1,0,1,0] + x[1,4,0,1] <= 1
 move_1_0_01_41: x[1,0,1,0] + x[1,4,1,1] <= 1
 move_1_0_01_42: x[1,0,1,0] + x[1,4,2,1] <= 1
 move_1_0_01_43: x[1,0,1,0] + x[1,4,3,1] <= 1
 move_1_0_01_44: x[1,0,1,0] + x[1,4,4,1] <= 1
 move_1_0_02_10: x[1,0,2,0] + x[1,1,0,1] <= 1
 move_1_0_02_14: x[1,0,2,0] + x[1,1,4,1] <= 1
 move_1_0_02_20: x[1,0,2,0] + x[1,2,0,1] <= 1
 move_1_0_02_21: x[1,0,2,0] + x[1,2,1,1] <= 1
 move_1_0_02_23: x[1,0,2,0] + x[1,2,3,1] <= 1
 move_1_0_02_24: x[1,0,2,0] + x[1,2,4,1] <= 1
 move_1_0_02_30: x[1,0,2,0] + x[1,3,0,1] <= 1
 move_1_0_02_31: x[1,0,2,0] + x[1,3,1,1] <= 1
 move_1_0_02_32: x[1,0,2,0] + x[1,3,2,1] <= 1
 move_1_0_02_33: x[1,0,2,0] + x[1,3,3,1] <= 1
 move_1_0_02_34: x[1,0,2,0] + x[1,3,4,1] <= 1
 move_1_0_02_40: x[1,0,2,0] + x[1,4,0,1] <= 1
 move_1_0_02_41: x[1,0,2,0] + x[1,4,1,1] <= 1
 move_1_0_02_42: x[1,0,2,0] + x[1,4,2,1] <= 1
 move_1_0_02_43: x[1,0,2,0] + x[1,4,3,1] <= 1
 move_1_0_02_44: x[1,0,2,0] + x[1,4,4,1] <= 1
 move_1_0_03_00: x[1,0,0,1] + x[1,0,3,0] <= 1
 move_1_0_03_10: x[1,0,3,0] + x[1,1,0,1] <= 1
 move_1_0_03_11: x[1,0,3,0] + x[1,1,1,1] <= 1
 move_1_0_03_20: x[1,0,3,0] + x[1,2,0,1] <= 1
 move_1_0_03_21: x[1,0,3,0] + x[1,2,1,1] <= 1
 move_1_0_03_22: x[1,0,3,0] + x[1,2,2,1] <= 1
 move_1_0_03_24: x[1,0,3,0] + x[1,2,4,1] <= 1
 move_1_0_03_30: x[1,0,3,0] + x[1,3,0,1] <= 1
 move_1_0_03_31: x[1,0,3,0] + x[1,3,1,1] <= 1
 move_1_0_03_32: x[1,0,3,0] + x[1,3,2,1] <= 1
 move_1_0_03_33: x[1,0,3,0] + x[1,3,3,1] <= 1
 move_1_0_03_34: x[1,0,3,0] + x[1,3,4,1] <= 1
 move_1_0_03_40: x[1,0,3,0] + x[1,4,0,1] <= 1
 move_1_0_03_41: x[1,0,3,0] + x[1,4,1,1] <= 1
 move_1_0_03_42: x[1,0,3,0] + x[1,4,2,1] <= 1
 move_1_0_03_43: x[1,0,3,0] + x[1,4,3,1] <= 1
 move_1_0_03_44: x[1,0,3,0] + x[1,4,4,1] <= 1
 move_1_0_04_00: x[1,0,0,1] + x[1,0,4,0] <= 1
 move_1_0_04_01: x[1,0,1,1] + x[1,0,4,0] <= 1
 move_1_0_04_10: x[1,0,4,0] + x[1,1,0,1] <= 1
 move_1_0_04_11: x[1,0,4,0] + x[1,1,1,1] <= 1
 move_1_0_04_12: x[1,0,4,0] + x[1,1,2,1] <= 1
 move_1_0_04_20: x[1,0,4,0] + x[1,2,0,1] <= 1
 move_1_0_04_21: x[1,0,4,0] + x[1,2,1,1] <= 1
 move_1_0_04_22: x[1,0,4,0] + x[1,2,2,1] <= 1
 move_1_0_04_23: x[1,0,4,0] + x[1,2,3,1] <= 1
 move_1_0_04_30: x[1,0,4,0] + x[1,3,0,1] <= 1
 move_1_0_04_31: x[1,0,4,0] + x[1,3,1,1] <= 1
 move_1_0_04_32: x[1,0,4,0] + x[1,3,2,1] <= 1
 move_1_0_04_33: x[1,0,4,0] + x[1,3,3,1] <= 1
 move_1_0_04_34: x[1,0,4,0] + x[1,3,4,1] <= 1
 move_1_0_04_40: x[1,0,4,0] + x[1,4,0,1] <= 1
 move_1_0_04_41: x[1,0,4,0] + x[1,4,1,1] <= 1
 move_1_0_04_42: x[1,0,4,0] + x[1,4,2,1] <= 1
 move_1_0_04_43: x[1,0,4,0] + x[1,4,3,1] <= 1
 move_1_0_04_44: x[1,0,4,0] + x[1,4,4,1] <= 1
 move_1_0_10_02: x[1,0,2,1] + x[1,1,0,0] <= 1
 move_1_0_10_03: x[1,0,3,1] + x[1,1,0,0] <= 1
 move_1_0_10_04: x[1,0,4,1] + x[1,1,0,0] <= 1
 move_1_0_10_13: x[1,1,0,0] + x[1,1,3,1] <= 1
 move_1_0_10_14: x[1,1,0,0] + x[1,1,4,1] <= 1
 move_1_0_10_22: x[1,1,0,0] + x[1,2,2,1] <= 1
 move_1_0_10_23: x[1,1,0,0] + x[1,2,3,1] <= 1
 move_1_0_10_24: x[1,1,0,0] + x[1,2,4,1] <= 1
 move_1_0_10_31: x[1,1,0,0] + x[1,3,1,1] <= 1
 move_1_0_10_32: x[1,1,0,0] + x[1,3,2,1] <= 1
 move_1_0_10_33: x[1,1,0,0] + x[1,3,3,1] <= 1
 move_1_0_10_34: x[1,1,0,0] + x[1,3,4,1] <= 1
 move_1_0_10_40: x[1,1,0,0] + x[1,4,0,1] <= 1
 move_1_0_10_41: x[1,1,0,0] + x[1,4,1,1] <= 1
 move_1_0_10_42: x[1,1,0,0] + x[1,4,2,1] <= 1
 move_1_0_10_43: x[1,1,0,0] + x[1,4,3,1] <= 1
 move_1_0_10_44: x[1,1,0,0] + x[1,4,4,1] <= 1
 move_1_0_11_03: x[1,0,3,1] + x[1,1,1,0] <= 1
 move_1_0_11_04: x[1,0,4,1] + x[1,1,1,0] <= 1
 move_1_0_11_14: x[1,1,1,0] + x[1,1,4,1] <= 1
 move_1_0_11_23: x[1,1,1,0] + x[1,2,3,1] <= 1
 move_1_0_11_24: x[1,1,1,0] + x[1,2,4,1] <= 1
 move_1_0_11_30: x[1,1,1,0] + x[1,3,0,1] <= 1
 move_1_0_11_32: x[1,1,1,0] + x[1,3,2,1] <= 1
 move_1_0_11_33: x[1,1,1,0] + x[1,3,3,1] <= 1
 move_1_0_11_34: x[1,1,1,0] + x[1,3,4,1] <= 1
 move_1_0_11_40: x[1,1,1,0] + x[1,4,0,1] <= 1
 move_1_0_11_41: x[1,1,1,0] + x[1,4,1,1] <= 1
 move_1_0_11_42: x[1,1,1,0] + x[1,4,2,1] <= 1
 move_1_0_11_43: x[1,1,1,0] + x[1,4,3,1] <= 1
 move_1_0_11_44: x[1,1,1,0] + x[1,4,4,1] <= 1
 move_1_0_12_00: x[1,0,0,1] + x[1,1,2,0] <= 1
 move_1_0_12_04: x[1,0,4,1] + x[1,1,2,0] <= 1
 move_1_0_12_20: x[1,1,2,0] + x[1,2,0,1] <= 1
 move_1_0_12_24: x[1,1,2,0] + x[1,2,4,1] <= 1
 move_1_0_12_30: x[1,1,2,0] + x[1,3,0,1] <= 1
 move_1_0_12_31: x[1,1,2,0] + x[1,3,1,1] <= 1
 move_1_0_12_33: x[1,1,2,0] + x[1,3,3,1] <= 1
 move_1_0_12_34: x[1,1,2,0] + x[1,3,4,1] <= 1
 move_1_0_12_40: x[1,1,2,0] + x[1,4,0,1] <= 1
 move_1_0_12_41: x[1,1,2,0] + x[1,4,1,1] <= 1
 move_1_0_12_42: x[1,1,2,0] + x[1,4,2,1] <= 1
 move_1_0_12_43: x[1,1,2,0] + x[1,4,3,1] <= 1
 move_1_0_12_44: x[1,1,2,0] + x[1,4,4,1] <= 1
 move_1_0_13_00: x[1,0,0,1] + x[1,1,3,0] <= 1
 move_1_0_13_01: x[1,0,1,1] + x[1,1,3,0] <= 1
 move_1_0_13_10: x[1,1,0,1] + x[1,1,3,0] <= 1
 move_1_0_13_20: x[1,1,3,0] + x[1,2,0,1] <= 1
 move_1_0_13_21: x[1,1,3,0] + x[1,2,1,1] <= 1
 move_1_0_13_30: x[1,1,3,0] + x[1,3,0,1] <= 1
 move_1_0_13_31: x[1,1,3,0] + x[1,3,1,1] <= 1
 move_1_0_13_32: x[1,1,3,0] + x[1,3,2,1] <= 1
 move_1_0_13_34: x[1,1,3,0] + x[1,3,4,1] <= 1
 move_1_0_13_40: x[1,1,3,0] + x[1,4,0,1] <= 1
 move_1_0_13_41: x[1,1,3,0] + x[1,4,1,1] <= 1
 move_1_0_13_42: x[1,1,3,0] + x[1,4,2,1] <= 1
 move_1_0_13_43: x[1,1,3,0] + x[1,4,3,1] <= 1
 move_1_0_13_44: x[1,1,3,0] + x[1,4,4,1] <= 1
 move_1_0_14_00: x[1,0,0,1] + x[1,1,4,0] <= 1
 move_1_0_14_01: x[1,0,1,1] + x[1,1,4,0] <= 1
 move_1_0_14_02: x[1,0,2,1] + x[1,1,4,0] <= 1
 move_1_0_14_10: x[1,1,0,1] + x[1,1,4,0] <= 1
 move_1_0_14_11: x[1,1,1,1] + x[1,1,4,0] <= 1
 move_1_0_14_20: x[1,1,4,0] + x[1,2,0,1] <= 1
 move_1_0_14_21: x[1,1,4,0] + x[1,2,1,1] <= 1
 move_1_0_14_22: x[1,1,4,0] + x[1,2,2,1] <= 1
 move_1_0_14_30: x[1,1,4,0] + x[1,3,0,1] <= 1
 move_1_0_14_31: x[1,1,4,0] + x[1,3,1,1] <= 1
 move_1_0_14_32: x[1,1,4,0] + x[1,3,2,1] <= 1
 move_1_0_14_33: x[1,1,4,0] + x[1,3,3,1] <= 1
 move_1_0_14_40: x[1,1,4,0] + x[1,4,0,1] <= 1
 move_1_0_14_41: x[1,1,4,0] + x[1,4,1,1] <= 1
 move_1_0_14_42: x[1,1,4,0] + x[1,4,2,1] <= 1
 move_1_0_14_43: x[1,1,4,0] + x[1,4,3,1] <= 1
 move_1_0_14_44: x[1,1,4,0] + x[1,4,4,1] <= 1
 move_1_0_20_01: x[1,0,1,1] + x[1,2,0,0] <= 1
 move_1_0_20_02: x[1,0,2,1] + x[1,2,0,0] <= 1
 move_1_0_20_03: x[1,0,3,1] + x[1,2,0,0] <= 1
 move_1_0_20_04: x[1,0,4,1] + x[1,2,0,0] <= 1
 move_1_0_20_12: x[1,1,2,1] + x[1,2,0,0] <= 1
 move_1_0_20_13: x[1,1,3,1] + x[1,2,0,0] <= 1
 move_1_0_20_14: x[1,1,4,1] + x[1,2,0,0] <= 1
 move_1_0_20_23: x[1,2,0,0] + x[1,2,3,1] <= 1
 move_1_0_20_24: x[1,2,0,0] + x[1,2,4,1] <= 1
 move_1_0_20_32: x[1,2,0,0] + x[1,3,2,1] <= 1
 move_1_0_20_33: x[1,2,0,0] + x[1,3,3,1] <= 1
 move_1_0_20_34: x[1,2,0,0] + x[1,3,4,1] <= 1
 move_1_0_20_41: x[1,2,0,0] + x[1,4,1,1] <= 1
 move_1_0_20_42: x[1,2,0,0] + x[1,4,2,1] <= 1
 move_1_0_20_43: x[1,2,0,0] + x[1,4,3,1] <= 1
 move_1_0_20_44: x[1,2,0,0] + x[1,4,4,1] <= 1
 move_1_0_21_00: x[1,0,0,1] + x[1,2,1,0] <= 1
 move_1_0_21_02: x[1,0,2,1] + x[1,2,1,0] <= 1
 move_1_0_21_03: x[1,0,3,1] + x[1,2,1,0] <= 1
 move_1_0_21_04: x[1,0,4,1] + x[1,2,1,0] <= 1
 move_1_0_21_13: x[1,1,3,1] + x[1,2,1,0] <= 1
 move_1_0_21_14: x[1,1,4,1] + x[1,2,1,0] <= 1
 move_1_0_21_24: x[1,2,1,0] + x[1,2,4,1] <= 1
 move_1_0_21_33: x[1,2,1,0] + x[1,3,3,1] <= 1
 move_1_0_21_34: x[1,2,1,0] + x[1,3,4,1] <= 1
 move_1_0_21_40: x[1,2,1,0] + x[1,4,0,1] <= 1
 move_1_0_21_42: x[1,2,1,0] + x[1,4,2,1] <= 1
 move_1_0_21_43: x[1,2,1,0] + x[1,4,3,1] <= 1
 move_1_0_21_44: x[1,2,1,0] + x[1,4,4,1] <= 1
 move_1_0_22_00: x[1,0,0,1] + x[1,2,2,0] <= 1
 move_1_0_22_01: x[1,0,1,1] + x[1,2,2,0] <= 1
 move_1_0_22_03: x[1,0,3,1] + x[1,2,2,0] <= 1
 move_1_0_22_04: x[1,0,4,1] + x[1,2,2,0] <= 1
 move_1_0_22_10: x[1,1,0,1] + x[1,2,2,0] <= 1
 move_1_0_22_14: x[1,1,4,1] + x[1,2,2,0] <= 1
 move_1_0_22_30: x[1,2,2,0] + x[1,3,0,1] <= 1
 move_1_0_22_34: x[1,2,2,0] + x[1,3,4,1] <= 1
 move_1_0_22_40: x[1,2,2,0] + x[1,4,0,1] <= 1
 move_1_0_22_41: x[1,2,2,0] + x[1,4,1,1] <= 1
 move_1_0_22_43: x[1,2,2,0] + x[1,4,3,1] <= 1
 move_1_0_22_44: x[1,2,2,0] + x[1,4,4,1] <= 1
 move_1_0_23_00: x[1,0,0,1] + x[1,2,3,0] <= 1
 move_1_0_23_01: x[1,0,1,1] + x[1,2,3,0] <= 1
 move_1_0_23_02: x[1,0,2,1] + x[1,2,3,0] <= 1
 move_1_0_23_04: x[1,0,4,1] + x[1,2,3,0] <= 1
 move_1_0_23_10: x[1,1,0,1] + x[1,2,3,0] <= 1
 move_1_0_23_11: x[1,1,1,1] + x[1,2,3,0] <= 1
 move_1_0_23_20: x[1,2,0,1] + x[1,2,3,0] <= 1
 move_1_0_23_30: x[1,2,3,0] + x[1,3,0,1] <= 1
 move_1_0_23_31: x[1,2,3,0] + x[1,3,1,1] <= 1
 move_1_0_23_40: x[1,2,3,0] + x[1,4,0,1] <= 1
 move_1_0_23_41: x[1,2,3,0] + x[1,4,1,1] <= 1
 move_1_0_23_42: x[1,2,3,0] + x[1,4,2,1] <= 1
 move_1_0_23_44: x[1,2,3,0] + x[1,4,4,1] <= 1
 move_1_0_24_00: x[1,0,0,1] + x[1,2,4,0] <= 1
 move_1_0_24_01: x[1,0,1,1] + x[1,2,4,0] <= 1
 move_1_0_24_02: x[1,0,2,1] + x[1,2,4,0] <= 1
 move_1_0_24_03: x[1,0,3,1] + x[1,2,4,0] <= 1
 move_1_0_24_10: x[1,1,0,1] + x[1,2,4,0] <= 1
 move_1_0_24_11: x[1,1,1,1] + x[1,2,4,0] <= 1
 move_1_0_24_12: x[1,1,2,1] + x[1,2,4,0] <= 1
 move_1_0_24_20: x[1,2,0,1] + x[1,2,4,0] <= 1
 move_1_0_24_21: x[1,2,1,1] + x[1,2,4,0] <= 1
 move_1_0_24_30: x[1,2,4,0] + x[1,3,0,1] <= 1
 move_1_0_24_31: x[1,2,4,0] + x[1,3,1,1] <= 1
 move_1_0_24_32: x[1,2,4,0] + x[1,3,2,1] <= 1
 move_1_0_24_40: x[1,2,4,0] + x[1,4,0,1] <= 1
 move_1_0_24_41: x[1,2,4,0] + x[1,4,1,1] <= 1
 move_1_0_24_42: x[1,2,4,0] + x[1,4,2,1] <= 1
 move_1_0_24_43: x[1,2,4,0] + x[1,4,3,1] <= 1
 move_1_0_30_00: x[1,0,0,1] + x[1,3,0,0] <= 1
 move_1_0_30_01: x[1,0,1,1] + x[1,3,0,0] <= 1
 move_1_0_30_02: x[1,0,2,1] + x[1,3,0,0] <= 1
 move_1_0_30_03: x[1,0,3,1] + x[1,3,0,0] <= 1
 move_1_0_30_04: x[1,0,4,1] + x[1,3,0,0] <= 1
 move_1_0_30_11: x[1,1,1,1] + x[1,3,0,0] <= 1
 move_1_0_30_12: x[1,1,2,1] + x[1,3,0,0] <= 1
 move_1_0_30_13: x[1,1,3,1] + x[1,3,0,0] <= 1
 move_1_0_30_14: x[1,1,4,1] + x[1,3,0,0] <= 1
 move_1_0_30_22: x[1,2,2,1] + x[1,3,0,0] <= 1
 move_1_0_30_23: x[1,2,3,1] + x[1,3,0,0] <= 1
 move_1_0_30_24: x[1,2,4,1] + x[1,3,0,0] <= 1
 move_1_0_30_33: x[1,3,0,0] + x[1,3,3,1] <= 1
 move_1_0_30_34: x[1,3,0,0] + x[1,3,4,1] <= 1
 move_1_0_30_42: x[1,3,0,0] + x[1,4,2,1] <= 1
 move_1_0_30_43: x[1,3,0,0] + x[1,4,3,1] <= 1
 move_1_0_30_44: x[1,3,0,0] + x[1,4,4,1] <= 1
 move_1_0_31_00: x[1,0,0,1] + x[1,3,1,0] <= 1
 move_1_0_31_01: x[1,0,1,1] + x[1,3,1,0] <= 1
 move_1_0_31_02: x[1,0,2,1] + x[1,3,1,0] <= 1
 move_1_0_31_03: x[1,0,3,1] + x[1,3,1,0] <= 1
 move_1_0_31_04: x[1,0,4,1] + x[1,3,1,0] <= 1
 move_1_0_31_10: x[1,1,0,1] + x[1,3,1,0] <= 1
 move_1_0_31_12: x[1,1,2,1] + x[1,3,1,0] <= 1
 move_1_0_31_13: x[1,1,3,1] + x[1,3,1,0] <= 1
 move_1_0_31_14: x[1,1,4,1] + x[1,3,1,0] <= 1
 move_1_0_31_23: x[1,2,3,1] + x[1,3,1,0] <= 1
 move_1_0_31_24: x[1,2,4,1] + x[1,3,1,0] <= 1
 move_1_0_31_34: x[1,3,1,0] + x[1,3,4,1] <= 1
 move_1_0_31_43: x[1,3,1,0] + x[1,4,3,1] <= 1
 move_1_0_31_44: x[1,3,1,0] + x[1,4,4,1] <= 1
 move_1_0_32_00: x[1,0,0,1] + x[1,3,2,0] <= 1
 move_1_0_32_01: x[1,0,1,1] + x[1,3,2,0] <= 1
 move_1_0_32_02: x[1,0,2,1] + x[1,3,2,0] <= 1
 move_1_0_32_03: x[1,0,3,1] + x[1,3,2,0] <= 1
 move_1_0_32_04: x[1,0,4,1] + x[1,3,2,0] <= 1
 move_1_0_32_10: x[1,1,0,1] + x[1,3,2,0] <= 1
 move_1_0_32_11: x[1,1,1,1] + x[1,3,2,0] <= 1
 move_1_0_32_13: x[1,1,3,1] + x[1,3,2,0] <= 1
 move_1_0_32_14: x[1,1,4,1] + x[1,3,2,0] <= 1
 move_1_0_32_20: x[1,2,0,1] + x[1,3,2,0] <= 1
 move_1_0_32_24: x[1,2,4,1] + x[1,3,2,0] <= 1
 move_1_0_32_40: x[1,3,2,0] + x[1,4,0,1] <= 1
 move_1_0_32_44: x[1,3,2,0] + x[1,4,4,1] <= 1
 move_1_0_33_00: x[1,0,0,1] + x[1,3,3,0] <= 1
 move_1_0_33_01: x[1,0,1,1] + x[1,3,3,0] <= 1
 move_1_0_33_02: x[1,0,2,1] + x[1,3,3,0] <= 1
 move_1_0_33_03: x[1,0,3,1] + x[1,3,3,0] <= 1
 move_1_0_33_04: x[1,0,4,1] + x[1,3,3,0] <= 1
 move_1_0_33_10: x[1,1,0,1] + x[1,3,3,0] <= 1
 move_1_0_33_11: x[1,1,1,1] + x[1,3,3,0] <= 1
 move_1_0_33_12: x[1,1,2,1] + x[1,3,3,0] <= 1
 move_1_0_33_14: x[1,1,4,1] + x[1,3,3,0] <= 1
 move_1_0_33_20: x[1,2,0,1] + x[1,3,3,0] <= 1
 move_1_0_33_21: x[1,2,1,1] + x[1,3,3,0] <= 1
 move_1_0_33_30: x[1,3,0,1] + x[1,3,3,0] <= 1
 move_1_0_33_40: x[1,3,3,0] + x[1,4,0,1] <= 1
 move_1_0_33_41: x[1,3,3,0] + x[1,4,1,1] <= 1
 move_1_0_34_00: x[1,0,0,1] + x[1,3,4,0] <= 1
 move_1_0_34_01: x[1,0,1,1] + x[1,3,4,0] <= 1
 move_1_0_34_02: x[1,0,2,1] + x[1,3,4,0] <= 1
 move_1_0_34_03: x[1,0,3,1] + x[1,3,4,0] <= 1
 move_1_0_34_04: x[1,0,4,1] + x[1,3,4,0] <= 1
 move_1_0_34_10: x[1,1,0,1] + x[1,3,4,0] <= 1
 move_1_0_34_11: x[1,1,1,1] + x[1,3,4,0] <= 1
 move_1_0_34_12: x[1,1,2,1] + x[1,3,4,0] <= 1
 move_1_0_34_13: x[1,1,3,1] + x[1,3,4,0] <= 1
 move_1_0_34_20: x[1,2,0,1] + x[1,3,4,0] <= 1
 move_1_0_34_21: x[1,2,1,1] + x[1,3,4,0] <= 1
 move_1_0_34_22: x[1,2,2,1] + x[1,3,4,0] <= 1
 move_1_0_34_30: x[1,3,0,1] + x[1,3,4,0] <= 1
 move_1_0_34_31: x[1,3,1,1] + x[1,3,4,0] <= 1
 move_1_0_34_40: x[1,3,4,0] + x[1,4,0,1] <= 1
 move_1_0_34_41: x[1,3,4,0] + x[1,4,1,1] <= 1
 move_1_0_34_42: x[1,3,4,0] + x[1,4,2,1] <= 1
 move_1_0_40_00: x[1,0,0,1] + x[1,4,0,0] <= 1
 move_1_0_40_01: x[1,0,1,1] + x[1,4,0,0] <= 1
 move_1_0_40_02: x[1,0,2,1] + x[1,4,0,0] <= 1
 move_1_0_40_03: x[1,0,3,1] + x[1,4,0,0] <= 1
 move_1_0_40_04: x[1,0,4,1] + x[1,4,0,0] <= 1
 move_1_0_40_10: x[1,1,0,1] + x[1,4,0,0] <= 1
 move_1_0_40_11: x[1,1,1,1] + x[1,4,0,0] <= 1
 move_1_0_40_12: x[1,1,2,1] + x[1,4,0,0] <= 1
 move_1_0_40_13: x[1,1,3,1] + x[1,4,0,0] <= 1
 move_1_0_40_14: x[1,1,4,1] + x[1,4,0,0] <= 1
 move_1_0_40_21: x[1,2,1,1] + x[1,4,0,0] <= 1
 move_1_0_40_22: x[1,2,2,1] + x[1,4,0,0] <= 1
 move_1_0_40_23: x[1,2,3,1] + x[1,4,0,0] <= 1
 move_1_0_40_24: x[1,2,4,1] + x[1,4,0,0] <= 1
 move_1_0_40_32: x[1,3,2,1] + x[1,4,0,0] <= 1
 move_1_0_40_33: x[1,3,3,1] + x[1,4,0,0] <= 1
 move_1_0_40_34: x[1,3,4,1] + x[1,4,0,0] <= 1
 move_1_0_40_43: x[1,4,0,0] + x[1,4,3,1] <= 1
 move_1_0_40_44: x[1,4,0,0] + x[1,4,4,1] <= 1
 move_1_0_41_00: x[1,0,0,1] + x[1,4,1,0] <= 1
 move_1_0_41_01: x[1,0,1,1] + x[1,4,1,0] <= 1
 move_1_0_41_02: x[1,0,2,1] + x[1,4,1,0] <= 1
 move_1_0_41_03: x[1,0,3,1] + x[1,4,1,0] <= 1
 move_1_0_41_04: x[1,0,4,1] + x[1,4,1,0] <= 1
 move_1_0_41_10: x[1,1,0,1] + x[1,4,1,0] <= 1
 move_1_0_41_11: x[1,1,1,1] + x[1,4,1,0] <= 1
 move_1_0_41_12: x[1,1,2,1] + x[1,4,1,0] <= 1
 move_1_0_41_13: x[1,1,3,1] + x[1,4,1,0] <= 1
 move_1_0_41_14: x[1,1,4,1] + x[1,4,1,0] <= 1
 move_1_0_41_20: x[1,2,0,1] + x[1,4,1,0] <= 1
 move_1_0_41_22: x[1,2,2,1] + x[1,4,1,0] <= 1
 move_1_0_41_23: x[1,2,3,1] + x[1,4,1,0] <= 1
 move_1_0_41_24: x[1,2,4,1] + x[1,4,1,0] <= 1
 move_1_0_41_33: x[1,3,3,1] + x[1,4,1,0] <= 1
 move_1_0_41_34: x[1,3,4,1] + x[1,4,1,0] <= 1
 move_1_0_41_44: x[1,4,1,0] + x[1,4,4,1] <= 1
 move_1_0_42_00: x[1,0,0,1] + x[1,4,2,0] <= 1
 move_1_0_42_01: x[1,0,1,1] + x[1,4,2,0] <= 1
 move_1_0_42_02: x[1,0,2,1] + x[1,4,2,0] <= 1
 move_1_0_42_03: x[1,0,3,1] + x[1,4,2,0] <= 1
 move_1_0_42_04: x[1,0,4,1] + x[1,4,2,0] <= 1
 move_1_0_42_10: x[1,1,0,1] + x[1,4,2,0] <= 1
 move_1_0_42_11: x[1,1,1,1] + x[1,4,2,0] <= 1
 move_1_0_42_12: x[1,1,2,1] + x[1,4,2,0] <= 1
 move_1_0_42_13: x[1,1,3,1] + x[1,4,2,0] <= 1
 move_1_0_42_14: x[1,1,4,1] + x[1,4,2,0] <= 1
 move_1_0_42_20: x[1,2,0,1] + x[1,4,2,0] <= 1
 move_1_0_42_21: x[1,2,1,1] + x[1,4,2,0] <= 1
 move_1_0_42_23: x[1,2,3,1] + x[1,4,2,0] <= 1
 move_1_0_42_24: x[1,2,4,1] + x[1,4,2,0] <= 1
 move_1_0_42_30: x[1,3,0,1] + x[1,4,2,0] <= 1
 move_1_0_42_34: x[1,3,4,1] + x[1,4,2,0] <= 1
 move_1_0_43_00: x[1,0,0,1] + x[1,4,3,0] <= 1
 move_1_0_43_01: x[1,0,1,1] + x[1,4,3,0] <= 1
 move_1_0_43_02: x[1,0,2,1] + x[1,4,3,0] <= 1
 move_1_0_43_03: x[1,0,3,1] + x[1,4,3,0] <= 1
 move_1_0_43_04: x[1,0,4,1] + x[1,4,3,0] <= 1
 move_1_0_43_10: x[1,1,0,1] + x[1,4,3,0] <= 1
 move_1_0_43_11: x[1,1,1,1] + x[1,4,3,0] <= 1
 move_1_0_43_12: x[1,1,2,1] + x[1,4,3,0] <= 1
 move_1_0_43_13: x[1,1,3,1] + x[1,4,3,0] <= 1
 move_1_0_43_14: x[1,1,4,1] + x[1,4,3,0] <= 1
 move_1_0_43_20: x[1,2,0,1] + x[1,4,3,0] <= 1
 move_1_0_43_21: x[1,2,1,1] + x[1,4,3,0] <= 1
 move_1_0_43_22: x[1,2,2,1] + x[1,4,3,0] <= 1
 move_1_0_43_24: x[1,2,4,1] + x[1,4,3,0] <= 1
 move_1_0_43_30: x[1,3,0,1] + x[1,4,3,0] <= 1
 move_1_0_43_31: x[1,3,1,1] + x[1,4,3,0] <= 1
 move_1_0_43_40: x[1,4,0,1] + x[1,4,3,0] <= 1
 move_1_0_44_00: x[1,0,0,1] + x[1,4,4,0] <= 1
 move_1_0_44_01: x[1,0,1,1] + x[1,4,4,0] <= 1
 move_1_0_44_02: x[1,0,2,1] + x[1,4,4,0] <= 1
 move_1_0_44_03: x[1,0,3,1] + x[1,4,4,0] <= 1
 move_1_0_44_04: x[1,0,4,1] + x[1,4,4,0] <= 1
 move_1_0_44_10: x[1,1,0,1] + x[1,4,4,0] <= 1
 move_1_0_44_11: x[1,1,1,1] + x[1,4,4,0] <= 1
 move_1_0_44_12: x[1,1,2,1] + x[1,4,4,0] <= 1
 move_1_0_44_13: x[1,1,3,1] + x[1,4,4,0] <= 1
 move_1_0_44_14: x[1,1,4,1] + x[1,4,4,0] <= 1
 move_1_0_44_20: x[1,2,0,1] + x[1,4,4,0] <= 1
 move_1_0_44_21: x[1,2,1,1] + x[1,4,4,0] <= 1
 move_1_0_44_22: x[1,2,2,1] + x[1,4,4,0] <= 1
 move_1_0_44_23: x[1,2,3,1] + x[1,4,4,0] <= 1
 move_1_0_44_30: x[1,3,0,1] + x[1,4,4,0] <= 1
 move_1_0_44_31: x[1,3,1,1] + x[1,4,4,0] <= 1
 move_1_0_44_32: x[1,3,2,1] + x[1,4,4,0] <= 1
 move_1_0_44_40: x[1,4,0,1] + x[1,4,4,0] <= 1
 move_1_0_44_41: x[1,4,1,1] + x[1,4,4,0] <= 1
 move_1_1_00_03: x[1,0,0,1] + x[1,0,3,2] <= 1
 move_1_1_00_04: x[1,0,0,1] + x[1,0,4,2] <= 1
 move_1_1_00_12: x[1,0,0,1] + x[1,1,2,2] <= 1
 move_1_1_00_13: x[1,0,0,1] + x[1,1,3,2] <= 1
 move_1_1_00_14: x[1,0,0,1] + x[1,1,4,2] <= 1
 move_1_1_00_21: x[1,0,0,1] + x[1,2,1,2] <= 1
 move_1_1_00_22: x[1,0,0,1] + x[1,2,2,2] <= 1
 move_1_1_00_23: x[1,0,0,1] + x[1,2,3,2] <= 1
 move_1_1_00_24: x[1,0,0,1] + x[1,2,4,2] <= 1
 move_1_1_00_30: x[1,0,0,1] + x[1,3,0,2] <= 1
 move_1_1_00_31: x[1,0,0,1] + x[1,3,1,2] <= 1
 move_1_1_00_32: x[1,0,0,1] + x[1,3,2,2] <= 1
 move_1_1_00_33: x[1,0,0,1] + x[1,3,3,2] <= 1
 move_1_1_00_34: x[1,0,0,1] + x[1,3,4,2] <= 1
 move_1_1_00_40: x[1,0,0,1] + x[1,4,0,2] <= 1
 move_1_1_00_41: x[1,0,0,1] + x[1,4,1,2] <= 1
 move_1_1_00_42: x[1,0,0,1] + x[1,4,2,2] <= 1
 move_1_1_00_43: x[1,0,0,1] + x[1,4,3,2] <= 1
 move_1_1_00_44: x[1,0,0,1] + x[1,4,4,2] <= 1
 move_1_1_01_04: x[1,0,1,1] + x[1,0,4,2] <= 1
 move_1_1_01_13: x[1,0,1,1] + x[1,1,3,2] <= 1
 move_1_1_01_14: x[1,0,1,1] + x[1,1,4,2] <= 1
 move_1_1_01_20: x[1,0,1,1] + x[1,2,0,2] <= 1
 move_1_1_01_22: x[1,0,1,1] + x[1,2,2,2] <= 1
 move_1_1_01_23: x[1,0,1,1] + x[1,2,3,2] <= 1
 move_1_1_01_24: x[1,0,1,1] + x[1,2,4,2] <= 1
 move_1_1_01_30: x[1,0,1,1] + x[1,3,0,2] <= 1
 move_1_1_01_31: x[1,0,1,1] + x[1,3,1,2] <= 1
 move_1_1_01_32: x[1,0,1,1] + x[1,3,2,2] <= 1
 move_1_1_01_33: x[1,0,1,1] + x[1,3,3,2] <= 1
 move_1_1_01_34: x[1,0,1,1] + x[1,3,4,2] <= 1
 move_1_1_01_40: x[1,0,1,1] + x[1,4,0,2] <= 1
 move_1_1_01_41: x[1,0,1,1] + x[1,4,1,2] <= 1
 move_1_1_01_42: x[1,0,1,1] + x[1,4,2,2] <= 1
 move_1_1_01_43: x[1,0,1,1] + x[1,4,3,2] <= 1
 move_1_1_01_44: x[1,0,1,1] + x[1,4,4,2] <= 1
 move_1_1_02_10: x[1,0,2,1] + x[1,1,0,2] <= 1
 move_1_1_02_14: x[1,0,2,1] + x[1,1,4,2] <= 1
 move_1_1_02_20: x[1,0,2,1] + x[1,2,0,2] <= 1
 move_1_1_02_21: x[1,0,2,1] + x[1,2,1,2] <= 1
 move_1_1_02_23: x[1,0,2,1] + x[1,2,3,2] <= 1
 move_1_1_02_24: x[1,0,2,1] + x[1,2,4,2] <= 1
 move_1_1_02_30: x[1,0,2,1] + x[1,3,0,2] <= 1
 move_1_1_02_31: x[1,0,2,1] + x[1,3,1,2] <= 1
 move_1_1_02_32: x[1,0,2,1] + x[1,3,2,2] <= 1
 move_1_1_02_33: x[1,0,2,1] + x[1,3,3,2] <= 1
 move_1_1_02_34: x[1,0,2,1] + x[1,3,4,2] <= 1
 move_1_1_02_40: x[1,0,2,1] + x[1,4,0,2] <= 1
 move_1_1_02_41: x[1,0,2,1] + x[1,4,1,2] <= 1
 move_1_1_02_42: x[1,0,2,1] + x[1,4,2,2] <= 1
 move_1_1_02_43: x[1,0,2,1] + x[1,4,3,2] <= 1
 move_1_1_02_44: x[1,0,2,1] + x[1,4,4,2] <= 1
 move_1_1_03_00: x[1,0,0,2] + x[1,0,3,1] <= 1
 move_1_1_03_10: x[1,0,3,1] + x[1,1,0,2] <= 1
 move_1_1_03_11: x[1,0,3,1] + x[1,1,1,2] <= 1
 move_1_1_03_20: x[1,0,3,1] + x[1,2,0,2] <= 1
 move_1_1_03_21: x[1,0,3,1] + x[1,2,1,2] <= 1
 move_1_1_03_22: x[1,0,3,1] + x[1,2,2,2] <= 1
 move_1_1_03_24: x[1,0,3,1] + x[1,2,4,2] <= 1
 move_1_1_03_30: x[1,0,3,1] + x[1,3,0,2] <= 1
 move_1_1_03_31: x[1,0,3,1] + x[1,3,1,2] <= 1
 move_1_1_03_32: x[1,0,3,1] + x[1,3,2,2] <= 1
 move_1_1_03_33: x[1,0,3,1] + x[1,3,3,2] <= 1
 move_1_1_03_34: x[1,0,3,1] + x[1,3,4,2] <= 1
 move_1_1_03_40: x[1,0,3,1] + x[1,4,0,2] <= 1
 move_1_1_03_41: x[1,0,3,1] + x[1,4,1,2] <= 1
 move_1_1_03_42: x[1,0,3,1] + x[1,4,2,2] <= 1
 move_1_1_03_43: x[1,0,3,1] + x[1,4,3,2] <= 1
 move_1_1_03_44: x[1,0,3,1] + x[1,4,4,2] <= 1
 move_1_1_04_00: x[1,0,0,2] + x[1,0,4,1] <= 1
 move_1_1_04_01: x[1,0,1,2] + x[1,0,4,1] <= 1
 move_1_1_04_10: x[1,0,4,1] + x[1,1,0,2] <= 1
 move_1_1_04_11: x[1,0,4,1] + x[1,1,1,2] <= 1
 move_1_1_04_12: x[1,0,4,1] + x[1,1,2,2] <= 1
 move_1_1_04_20: x[1,0,4,1] + x[1,2,0,2] <= 1
 move_1_1_04_21: x[1,0,4,1] + x[1,2,1,2] <= 1
 move_1_1_04_22: x[1,0,4,1] + x[1,2,2,2] <= 1
 move_1_1_04_23: x[1,0,4,1] + x[1,2,3,2] <= 1
 move_1_1_04_30: x[1,0,4,1] + x[1,3,0,2] <= 1
 move_1_1_04_31: x[1,0,4,1] + x[1,3,1,2] <= 1
 move_1_1_04_32: x[1,0,4,1] + x[1,3,2,2] <= 1
 move_1_1_04_33: x[1,0,4,1] + x[1,3,3,2] <= 1
 move_1_1_04_34: x[1,0,4,1] + x[1,3,4,2] <= 1
 move_1_1_04_40: x[1,0,4,1] + x[1,4,0,2] <= 1
 move_1_1_04_41: x[1,0,4,1] + x[1,4,1,2] <= 1
 move_1_1_04_42: x[1,0,4,1] + x[1,4,2,2] <= 1
 move_1_1_04_43: x[1,0,4,1] + x[1,4,3,2] <= 1
 move_1_1_04_44: x[1,0,4,1] + x[1,4,4,2] <= 1
 move_1_1_10_02: x[1,0,2,2] + x[1,1,0,1] <= 1
 move_1_1_10_03: x[1,0,3,2] + x[1,1,0,1] <= 1
 move_1_1_10_04: x[1,0,4,2] + x[1,1,0,1] <= 1
 move_1_1_10_13: x[1,1,0,1] + x[1,1,3,2] <= 1
 move_1_1_10_14: x[1,1,0,1] + x[1,1,4,2] <= 1
 move_1_1_10_22: x[1,1,0,1] + x[1,2,2,2] <= 1
 move_1_1_10_23: x[1,1,0,1] + x[1,2,3,2] <= 1
 move_1_1_10_24: x[1,1,0,1] + x[1,2,4,2] <= 1
 move_1_1_10_31: x[1,1,0,1] + x[1,3,1,2] <= 1
 move_1_1_10_32: x[1,1,0,1] + x[1,3,2,2] <= 1
 move_1_1_10_33: x[1,1,0,1] + x[1,3,3,2] <= 1
 move_1_1_10_34: x[1,1,0,1] + x[1,3,4,2] <= 1
 move_1_1_10_40: x[1,1,0,1] + x[1,4,0,2] <= 1
 move_1_1_10_41: x[1,1,0,1] + x[1,4,1,2] <= 1
 move_1_1_10_42: x[1,1,0,1] + x[1,4,2,2] <= 1
 move_1_1_10_43: x[1,1,0,1] + x[1,4,3,2] <= 1
 move_1_1_10_44: x[1,1,0,1] + x[1,4,4,2] <= 1
 move_1_1_11_03: x[1,0,3,2] + x[1,1,1,1] <= 1
 move_1_1_11_04: x[1,0,4,2] + x[1,1,1,1] <= 1
 move_1_1_11_14: x[1,1,1,1] + x[1,1,4,2] <= 1
 move_1_1_11_23: x[1,1,1,1] + x[1,2,3,2] <= 1
 move_1_1_11_24: x[1,1,1,1] + x[1,2,4,2] <= 1
 move_1_1_11_30: x[1,1,1,1] + x[1,3,0,2] <= 1
 move_1_1_11_32: x[1,1,1,1] + x[1,3,2,2] <= 1
 move_1_1_11_33: x[1,1,1,1] + x[1,3,3,2] <= 1
 move_1_1_11_34: x[1,1,1,1] + x[1,3,4,2] <= 1
 move_1_1_11_40: x[1,1,1,1] + x[1,4,0,2] <= 1
 move_1_1_11_41: x[1,1,1,1] + x[1,4,1,2] <= 1
 move_1_1_11_42: x[1,1,1,1] + x[1,4,2,2] <= 1
 move_1_1_11_43: x[1,1,1,1] + x[1,4,3,2] <= 1
 move_1_1_11_44: x[1,1,1,1] + x[1,4,4,2] <= 1
 move_1_1_12_00: x[1,0,0,2] + x[1,1,2,1] <= 1
 move_1_1_12_04: x[1,0,4,2] + x[1,1,2,1] <= 1
 move_1_1_12_20: x[1,1,2,1] + x[1,2,0,2] <= 1
 move_1_1_12_24: x[1,1,2,1] + x[1,2,4,2] <= 1
 move_1_1_12_30: x[1,1,2,1] + x[1,3,0,2] <= 1
 move_1_1_12_31: x[1,1,2,1] + x[1,3,1,2] <= 1
 move_1_1_12_33: x[1,1,2,1] + x[1,3,3,2] <= 1
 move_1_1_12_34: x[1,1,2,1] + x[1,3,4,2] <= 1
 move_1_1_12_40: x[1,1,2,1] + x[1,4,0,2] <= 1
 move_1_1_12_41: x[1,1,2,1] + x[1,4,1,2] <= 1
 move_1_1_12_42: x[1,1,2,1] + x[1,4,2,2] <= 1
 move_1_1_12_43: x[1,1,2,1] + x[1,4,3,2] <= 1
 move_1_1_12_44: x[1,1,2,1] + x[1,4,4,2] <= 1
 move_1_1_13_00: x[1,0,0,2] + x[1,1,3,1] <= 1
 move_1_1_13_01: x[1,0,1,2] + x[1,1,3,1] <= 1
 move_1_1_13_10: x[1,1,0,2] + x[1,1,3,1] <= 1
 move_1_1_13_20: x[1,1,3,1] + x[1,2,0,2] <= 1
 move_1_1_13_21: x[1,1,3,1] + x[1,2,1,2] <= 1
 move_1_1_13_30: x[1,1,3,1] + x[1,3,0,2] <= 1
 move_1_1_13_31: x[1,1,3,1] + x[1,3,1,2] <= 1
 move_1_1_13_32: x[1,1,3,1] + x[1,3,2,2] <= 1
 move_1_1_13_34: x[1,1,3,1] + x[1,3,4,2] <= 1
 move_1_1_13_40: x[1,1,3,1] + x[1,4,0,2] <= 1
 move_1_1_13_41: x[1,1,3,1] + x[1,4,1,2] <= 1
 move_1_1_13_42: x[1,1,3,1] + x[1,4,2,2] <= 1
 move_1_1_13_43: x[1,1,3,1] + x[1,4,3,2] <= 1
 move_1_1_13_44: x[1,1,3,1] + x[1,4,4,2] <= 1
 move_1_1_14_00: x[1,0,0,2] + x[1,1,4,1] <= 1
 move_1_1_14_01: x[1,0,1,2] + x[1,1,4,1] <= 1
 move_1_1_14_02: x[1,0,2,2] + x[1,1,4,1] <= 1
 move_1_1_14_10: x[1,1,0,2] + x[1,1,4,1] <= 1
 move_1_1_14_11: x[1,1,1,2] + x[1,1,4,1] <= 1
 move_1_1_14_20: x[1,1,4,1] + x[1,2,0,2] <= 1
 move_1_1_14_21: x[1,1,4,1] + x[1,2,1,2] <= 1
 move_1_1_14_22: x[1,1,4,1] + x[1,2,2,2] <= 1
 move_1_1_14_30: x[1,1,4,1] + x[1,3,0,2] <= 1
 move_1_1_14_31: x[1,1,4,1] + x[1,3,1,2] <= 1
 move_1_1_14_32: x[1,1,4,1] + x[1,3,2,2] <= 1
 move_1_1_14_33: x[1,1,4,1] + x[1,3,3,2] <= 1
 move_1_1_14_40: x[1,1,4,1] + x[1,4,0,2] <= 1
 move_1_1_14_41: x[1,1,4,1] + x[1,4,1,2] <= 1
 move_1_1_14_42: x[1,1,4,1] + x[1,4,2,2] <= 1
 move_1_1_14_43: x[1,1,4,1] + x[1,4,3,2] <= 1
 move_1_1_14_44: x[1,1,4,1] + x[1,4,4,2] <= 1
 move_1_1_20_01: x[1,0,1,2] + x[1,2,0,1] <= 1
 move_1_1_20_02: x[1,0,2,2] + x[1,2,0,1] <= 1
 move_1_1_20_03: x[1,0,3,2] + x[1,2,0,1] <= 1
 move_1_1_20_04: x[1,0,4,2] + x[1,2,0,1] <= 1
 move_1_1_20_12: x[1,1,2,2] + x[1,2,0,1] <= 1
 move_1_1_20_13: x[1,1,3,2] + x[1,2,0,1] <= 1
 move_1_1_20_14: x[1,1,4,2] + x[1,2,0,1] <= 1
 move_1_1_20_23: x[1,2,0,1] + x[1,2,3,2] <= 1
 move_1_1_20_24: x[1,2,0,1] + x[1,2,4,2] <= 1
 move_1_1_20_32: x[1,2,0,1] + x[1,3,2,2] <= 1
 move_1_1_20_33: x[1,2,0,1] + x[1,3,3,2] <= 1
 move_1_1_20_34: x[1,2,0,1] + x[1,3,4,2] <= 1
 move_1_1_20_41: x[1,2,0,1] + x[1,4,1,2] <= 1
 move_1_1_20_42: x[1,2,0,1] + x[1,4,2,2] <= 1
 move_1_1_20_43: x[1,2,0,1] + x[1,4,3,2] <= 1
 move_1_1_20_44: x[1,2,0,1] + x[1,4,4,2] <= 1
 move_1_1_21_00: x[1,0,0,2] + x[1,2,1,1] <= 1
 move_1_1_21_02: x[1,0,2,2] + x[1,2,1,1] <= 1
 move_1_1_21_03: x[1,0,3,2] + x[1,2,1,1] <= 1
 move_1_1_21_04: x[1,0,4,2] + x[1,2,1,1] <= 1
 move_1_1_21_13: x[1,1,3,2] + x[1,2,1,1] <= 1
 move_1_1_21_14: x[1,1,4,2] + x[1,2,1,1] <= 1
 move_1_1_21_24: x[1,2,1,1] + x[1,2,4,2] <= 1
 move_1_1_21_33: x[1,2,1,1] + x[1,3,3,2] <= 1
 move_1_1_21_34: x[1,2,1,1] + x[1,3,4,2] <= 1
 move_1_1_21_40: x[1,2,1,1] + x[1,4,0,2] <= 1
 move_1_1_21_42: x[1,2,1,1] + x[1,4,2,2] <= 1
 move_1_1_21_43: x[1,2,1,1] + x[1,4,3,2] <= 1
 move_1_1_21_44: x[1,2,1,1] + x[1,4,4,2] <= 1
 move_1_1_22_00: x[1,0,0,2] + x[1,2,2,1] <= 1
 move_1_1_22_01: x[1,0,1,2] + x[1,2,2,1] <= 1
 move_1_1_22_03: x[1,0,3,2] + x[1,2,2,1] <= 1
 move_1_1_22_04: x[1,0,4,2] + x[1,2,2,1] <= 1
 move_1_1_22_10: x[1,1,0,2] + x[1,2,2,1] <= 1
 move_1_1_22_14: x[1,1,4,2] + x[1,2,2,1] <= 1
 move_1_1_22_30: x[1,2,2,1] + x[1,3,0,2] <= 1
 move_1_1_22_34: x[1,2,2,1] + x[1,3,4,2] <= 1
 move_1_1_22_40: x[1,2,2,1] + x[1,4,0,2] <= 1
 move_1_1_22_41: x[1,2,2,1] + x[1,4,1,2] <= 1
 move_1_1_22_43: x[1,2,2,1] + x[1,4,3,2] <= 1
 move_1_1_22_44: x[1,2,2,1] + x[1,4,4,2] <= 1
 move_1_1_23_00: x[1,0,0,2] + x[1,2,3,1] <= 1
 move_1_1_23_01: x[1,0,1,2] + x[1,2,3,1] <= 1
 move_1_1_23_02: x[1,0,2,2] + x[1,2,3,1] <= 1
 move_1_1_23_04: x[1,0,4,2] + x[1,2,3,1] <= 1
 move_1_1_23_10: x[1,1,0,2] + x[1,2,3,1] <= 1
 move_1_1_23_11: x[1,1,1,2] + x[1,2,3,1] <= 1
 move_1_1_23_20: x[1,2,0,2] + x[1,2,3,1] <= 1
 move_1_1_23_30: x[1,2,3,1] + x[1,3,0,2] <= 1
 move_1_1_23_31: x[1,2,3,1] + x[1,3,1,2] <= 1
 move_1_1_23_40: x[1,2,3,1] + x[1,4,0,2] <= 1
 move_1_1_23_41: x[1,2,3,1] + x[1,4,1,2] <= 1
 move_1_1_23_42: x[1,2,3,1] + x[1,4,2,2] <= 1
 move_1_1_23_44: x[1,2,3,1] + x[1,4,4,2] <= 1
 move_1_1_24_00: x[1,0,0,2] + x[1,2,4,1] <= 1
 move_1_1_24_01: x[1,0,1,2] + x[1,2,4,1] <= 1
 move_1_1_24_02: x[1,0,2,2] + x[1,2,4,1] <= 1
 move_1_1_24_03: x[1,0,3,2] + x[1,2,4,1] <= 1
 move_1_1_24_10: x[1,1,0,2] + x[1,2,4,1] <= 1
 move_1_1_24_11: x[1,1,1,2] + x[1,2,4,1] <= 1
 move_1_1_24_12: x[1,1,2,2] + x[1,2,4,1] <= 1
 move_1_1_24_20: x[1,2,0,2] + x[1,2,4,1] <= 1
 move_1_1_24_21: x[1,2,1,2] + x[1,2,4,1] <= 1
 move_1_1_24_30: x[1,2,4,1] + x[1,3,0,2] <= 1
 move_1_1_24_31: x[1,2,4,1] + x[1,3,1,2] <= 1
 move_1_1_24_32: x[1,2,4,1] + x[1,3,2,2] <= 1
 move_1_1_24_40: x[1,2,4,1] + x[1,4,0,2] <= 1
 move_1_1_24_41: x[1,2,4,1] + x[1,4,1,2] <= 1
 move_1_1_24_42: x[1,2,4,1] + x[1,4,2,2] <= 1
 move_1_1_24_43: x[1,2,4,1] + x[1,4,3,2] <= 1
 move_1_1_30_00: x[1,0,0,2] + x[1,3,0,1] <= 1
 move_1_1_30_01: x[1,0,1,2] + x[1,3,0,1] <= 1
 move_1_1_30_02: x[1,0,2,2] + x[1,3,0,1] <= 1
 move_1_1_30_03: x[1,0,3,2] + x[1,3,0,1] <= 1
 move_1_1_30_04: x[1,0,4,2] + x[1,3,0,1] <= 1
 move_1_1_30_11: x[1,1,1,2] + x[1,3,0,1] <= 1
 move_1_1_30_12: x[1,1,2,2] + x[1,3,0,1] <= 1
 move_1_1_30_13: x[1,1,3,2] + x[1,3,0,1] <= 1
 move_1_1_30_14: x[1,1,4,2] + x[1,3,0,1] <= 1
 move_1_1_30_22: x[1,2,2,2] + x[1,3,0,1] <= 1
 move_1_1_30_23: x[1,2,3,2] + x[1,3,0,1] <= 1
 move_1_1_30_24: x[1,2,4,2] + x[1,3,0,1] <= 1
 move_1_1_30_33: x[1,3,0,1] + x[1,3,3,2] <= 1
 move_1_1_30_34: x[1,3,0,1] + x[1,3,4,2] <= 1
 move_1_1_30_42: x[1,3,0,1] + x[1,4,2,2] <= 1
 move_1_1_30_43: x[1,3,0,1] + x[1,4,3,2] <= 1
 move_1_1_30_44: x[1,3,0,1] + x[1,4,4,2] <= 1
 move_1_1_31_00: x[1,0,0,2] + x[1,3,1,1] <= 1
 move_1_1_31_01: x[1,0,1,2] + x[1,3,1,1] <= 1
 move_1_1_31_02: x[1,0,2,2] + x[1,3,1,1] <= 1
 move_1_1_31_03: x[1,0,3,2] + x[1,3,1,1] <= 1
 move_1_1_31_04: x[1,0,4,2] + x[1,3,1,1] <= 1
 move_1_1_31_10: x[1,1,0,2] + x[1,3,1,1] <= 1
 move_1_1_31_12: x[1,1,2,2] + x[1,3,1,1] <= 1
 move_1_1_31_13: x[1,1,3,2] + x[1,3,1,1] <= 1
 move_1_1_31_14: x[1,1,4,2] + x[1,3,1,1] <= 1
 move_1_1_31_23: x[1,2,3,2] + x[1,3,1,1] <= 1
 move_1_1_31_24: x[1,2,4,2] + x[1,3,1,1] <= 1
 move_1_1_31_34: x[1,3,1,1] + x[1,3,4,2] <= 1
 move_1_1_31_43: x[1,3,1,1] + x[1,4,3,2] <= 1
 move_1_1_31_44: x[1,3,1,1] + x[1,4,4,2] <= 1
 move_1_1_32_00: x[1,0,0,2] + x[1,3,2,1] <= 1
 move_1_1_32_01: x[1,0,1,2] + x[1,3,2,1] <= 1
 move_1_1_32_02: x[1,0,2,2] + x[1,3,2,1] <= 1
 move_1_1_32_03: x[1,0,3,2] + x[1,3,2,1] <= 1
 move_1_1_32_04: x[1,0,4,2] + x[1,3,2,1] <= 1
 move_1_1_32_10: x[1,1,0,2] + x[1,3,2,1] <= 1
 move_1_1_32_11: x[1,1,1,2] + x[1,3,2,1] <= 1
 move_1_1_32_13: x[1,1,3,2] + x[1,3,2,1] <= 1
 move_1_1_32_14: x[1,1,4,2] + x[1,3,2,1] <= 1
 move_1_1_32_20: x[1,2,0,2] + x[1,3,2,1] <= 1
 move_1_1_32_24: x[1,2,4,2] + x[1,3,2,1] <= 1
 move_1_1_32_40: x[1,3,2,1] + x[1,4,0,2] <= 1
 move_1_1_32_44: x[1,3,2,1] + x[1,4,4,2] <= 1
 move_1_1_33_00: x[1,0,0,2] + x[1,3,3,1] <= 1
 move_1_1_33_01: x[1,0,1,2] + x[1,3,3,1] <= 1
 move_1_1_33_02: x[1,0,2,2] + x[1,3,3,1] <= 1
 move_1_1_33_03: x[1,0,3,2] + x[1,3,3,1] <= 1
 move_1_1_33_04: x[1,0,4,2] + x[1,3,3,1] <= 1
 move_1_1_33_10: x[1,1,0,2] + x[1,3,3,1] <= 1
 move_1_1_33_11: x[1,1,1,2] + x[1,3,3,1] <= 1
 move_1_1_33_12: x[1,1,2,2] + x[1,3,3,1] <= 1
 move_1_1_33_14: x[1,1,4,2] + x[1,3,3,1] <= 1
 move_1_1_33_20: x[1,2,0,2] + x[1,3,3,1] <= 1
 move_1_1_33_21: x[1,2,1,2] + x[1,3,3,1] <= 1
 move_1_1_33_30: x[1,3,0,2] + x[1,3,3,1] <= 1
 move_1_1_33_40: x[1,3,3,1] + x[1,4,0,2] <= 1
 move_1_1_33_41: x[1,3,3,1] + x[1,4,1,2] <= 1
 move_1_1_34_00: x[1,0,0,2] + x[1,3,4,1] <= 1
 move_1_1_34_01: x[1,0,1,2] + x[1,3,4,1] <= 1
 move_1_1_34_02: x[1,0,2,2] + x[1,3,4,1] <= 1
 move_1_1_34_03: x[1,0,3,2] + x[1,3,4,1] <= 1
 move_1_1_34_04: x[1,0,4,2] + x[1,3,4,1] <= 1
 move_1_1_34_10: x[1,1,0,2] + x[1,3,4,1] <= 1
 move_1_1_34_11: x[1,1,1,2] + x[1,3,4,1] <= 1
 move_1_1_34_12: x[1,1,2,2] + x[1,3,4,1] <= 1
 move_1_1_34_13: x[1,1,3,2] + x[1,3,4,1] <= 1
 move_1_1_34_20: x[1,2,0,2] + x[1,3,4,1] <= 1
 move_1_1_34_21: x[1,2,1,2] + x[1,3,4,1] <= 1
 move_1_1_34_22: x[1,2,2,2] + x[1,3,4,1] <= 1
 move_1_1_34_30: x[1,3,0,2] + x[1,3,4,1] <= 1
 move_1_1_34_31: x[1,3,1,2] + x[1,3,4,1] <= 1
 move_1_1_34_40: x[1,3,4,1] + x[1,4,0,2] <= 1
 move_1_1_34_41: x[1,3,4,1] + x[1,4,1,2] <= 1
 move_1_1_34_42: x[1,3,4,1] + x[1,4,2,2] <= 1
 move_1_1_40_00: x[1,0,0,2] + x[1,4,0,1] <= 1
 move_1_1_40_01: x[1,0,1,2] + x[1,4,0,1] <= 1
 move_1_1_40_02: x[1,0,2,2] + x[1,4,0,1] <= 1
 move_1_1_40_03: x[1,0,3,2] + x[1,4,0,1] <= 1
 move_1_1_40_04: x[1,0,4,2] + x[1,4,0,1] <= 1
 move_1_1_40_10: x[1,1,0,2] + x[1,4,0,1] <= 1
 move_1_1_40_11: x[1,1,1,2] + x[1,4,0,1] <= 1
 move_1_1_40_12: x[1,1,2,2] + x[1,4,0,1] <= 1
 move_1_1_40_13: x[1,1,3,2] + x[1,4,0,1] <= 1
 move_1_1_40_14: x[1,1,4,2] + x[1,4,0,1] <= 1
 move_1_1_40_21: x[1,2,1,2] + x[1,4,0,1] <= 1
 move_1_1_40_22: x[1,2,2,2] + x[1,4,0,1] <= 1
 move_1_1_40_23: x[1,2,3,2] + x[1,4,0,1] <= 1
 move_1_1_40_24: x[1,2,4,2] + x[1,4,0,1] <= 1
 move_1_1_40_32: x[1,3,2,2] + x[1,4,0,1] <= 1
 move_1_1_40_33: x[1,3,3,2] + x[1,4,0,1] <= 1
 move_1_1_40_34: x[1,3,4,2] + x[1,4,0,1] <= 1
 move_1_1_40_43: x[1,4,0,1] + x[1,4,3,2] <= 1
 move_1_1_40_44: x[1,4,0,1] + x[1,4,4,2] <= 1
 move_1_1_41_00: x[1,0,0,2] + x[1,4,1,1] <= 1
 move_1_1_41_01: x[1,0,1,2] + x[1,4,1,1] <= 1
 move_1_1_41_02: x[1,0,2,2] + x[1,4,1,1] <= 1
 move_1_1_41_03: x[1,0,3,2] + x[1,4,1,1] <= 1
 move_1_1_41_04: x[1,0,4,2] + x[1,4,1,1] <= 1
 move_1_1_41_10: x[1,1,0,2] + x[1,4,1,1] <= 1
 move_1_1_41_11: x[1,1,1,2] + x[1,4,1,1] <= 1
 move_1_1_41_12: x[1,1,2,2] + x[1,4,1,1] <= 1
 move_1_1_41_13: x[1,1,3,2] + x[1,4,1,1] <= 1
 move_1_1_41_14: x[1,1,4,2] + x[1,4,1,1] <= 1
 move_1_1_41_20: x[1,2,0,2] + x[1,4,1,1] <= 1
 move_1_1_41_22: x[1,2,2,2] + x[1,4,1,1] <= 1
 move_1_1_41_23: x[1,2,3,2] + x[1,4,1,1] <= 1
 move_1_1_41_24: x[1,2,4,2] + x[1,4,1,1] <= 1
 move_1_1_41_33: x[1,3,3,2] + x[1,4,1,1] <= 1
 move_1_1_41_34: x[1,3,4,2] + x[1,4,1,1] <= 1
 move_1_1_41_44: x[1,4,1,1] + x[1,4,4,2] <= 1
 move_1_1_42_00: x[1,0,0,2] + x[1,4,2,1] <= 1
 move_1_1_42_01: x[1,0,1,2] + x[1,4,2,1] <= 1
 move_1_1_42_02: x[1,0,2,2] + x[1,4,2,1] <= 1
 move_1_1_42_03: x[1,0,3,2] + x[1,4,2,1] <= 1
 move_1_1_42_04: x[1,0,4,2] + x[1,4,2,1] <= 1
 move_1_1_42_10: x[1,1,0,2] + x[1,4,2,1] <= 1
 move_1_1_42_11: x[1,1,1,2] + x[1,4,2,1] <= 1
 move_1_1_42_12: x[1,1,2,2] + x[1,4,2,1] <= 1
 move_1_1_42_13: x[1,1,3,2] + x[1,4,2,1] <= 1
 move_1_1_42_14: x[1,1,4,2] + x[1,4,2,1] <= 1
 move_1_1_42_20: x[1,2,0,2] + x[1,4,2,1] <= 1
 move_1_1_42_21: x[1,2,1,2] + x[1,4,2,1] <= 1
 move_1_1_42_23: x[1,2,3,2] + x[1,4,2,1] <= 1
 move_1_1_42_24: x[1,2,4,2] + x[1,4,2,1] <= 1
 move_1_1_42_30: x[1,3,0,2] + x[1,4,2,1] <= 1
 move_1_1_42_34: x[1,3,4,2] + x[1,4,2,1] <= 1
 move_1_1_43_00: x[1,0,0,2] + x[1,4,3,1] <= 1
 move_1_1_43_01: x[1,0,1,2] + x[1,4,3,1] <= 1
 move_1_1_43_02: x[1,0,2,2] + x[1,4,3,1] <= 1
 move_1_1_43_03: x[1,0,3,2] + x[1,4,3,1] <= 1
 move_1_1_43_04: x[1,0,4,2] + x[1,4,3,1] <= 1
 move_1_1_43_10: x[1,1,0,2] + x[1,4,3,1] <= 1
 move_1_1_43_11: x[1,1,1,2] + x[1,4,3,1] <= 1
 move_1_1_43_12: x[1,1,2,2] + x[1,4,3,1] <= 1
 move_1_1_43_13: x[1,1,3,2] + x[1,4,3,1] <= 1
 move_1_1_43_14: x[1,1,4,2] + x[1,4,3,1] <= 1
 move_1_1_43_20: x[1,2,0,2] + x[1,4,3,1] <= 1
 move_1_1_43_21: x[1,2,1,2] + x[1,4,3,1] <= 1
 move_1_1_43_22: x[1,2,2,2] + x[1,4,3,1] <= 1
 move_1_1_43_24: x[1,2,4,2] + x[1,4,3,1] <= 1
 move_1_1_43_30: x[1,3,0,2] + x[1,4,3,1] <= 1
 move_1_1_43_31: x[1,3,1,2] + x[1,4,3,1] <= 1
 move_1_1_43_40: x[1,4,0,2] + x[1,4,3,1] <= 1
 move_1_1_44_00: x[1,0,0,2] + x[1,4,4,1] <= 1
 move_1_1_44_01: x[1,0,1,2] + x[1,4,4,1] <= 1
 move_1_1_44_02: x[1,0,2,2] + x[1,4,4,1] <= 1
 move_1_1_44_03: x[1,0,3,2] + x[1,4,4,1] <= 1
 move_1_1_44_04: x[1,0,4,2] + x[1,4,4,1] <= 1
 move_1_1_44_10: x[1,1,0,2] + x[1,4,4,1] <= 1
 move_1_1_44_11: x[1,1,1,2] + x[1,4,4,1] <= 1
 move_1_1_44_12: x[1,1,2,2] + x[1,4,4,1] <= 1
 move_1_1_44_13: x[1,1,3,2] + x[1,4,4,1] <= 1
 move_1_1_44_14: x[1,1,4,2] + x[1,4,4,1] <= 1
 move_1_1_44_20: x[1,2,0,2] + x[1,4,4,1] <= 1
 move_1_1_44_21: x[1,2,1,2] + x[1,4,4,1] <= 1
 move_1_1_44_22: x[1,2,2,2] + x[1,4,4,1] <= 1
 move_1_1_44_23: x[1,2,3,2] + x[1,4,4,1] <= 1
 move_1_1_44_30: x[1,3,0,2] + x[1,4,4,1] <= 1
 move_1_1_44_31: x[1,3,1,2] + x[1,4,4,1] <= 1
 move_1_1_44_32: x[1,3,2,2] + x[1,4,4,1] <= 1
 move_1_1_44_40: x[1,4,0,2] + x[1,4,4,1] <= 1
 move_1_1_44_41: x[1,4,1,2] + x[1,4,4,1] <= 1
 move_1_2_00_03: x[1,0,0,2] + x[1,0,3,3] <= 1
 move_1_2_00_04: x[1,0,0,2] + x[1,0,4,3] <= 1
 move_1_2_00_12: x[1,0,0,2] + x[1,1,2,3] <= 1
 move_1_2_00_13: x[1,0,0,2] + x[1,1,3,3] <= 1
 move_1_2_00_14: x[1,0,0,2] + x[1,1,4,3] <= 1
 move_1_2_00_21: x[1,0,0,2] + x[1,2,1,3] <= 1
 move_1_2_00_22: x[1,0,0,2] + x[1,2,2,3] <= 1
 move_1_2_00_23: x[1,0,0,2] + x[1,2,3,3] <= 1
 move_1_2_00_24: x[1,0,0,2] + x[1,2,4,3] <= 1
 move_1_2_00_30: x[1,0,0,2] + x[1,3,0,3] <= 1
 move_1_2_00_31: x[1,0,0,2] + x[1,3,1,3] <= 1
 move_1_2_00_32: x[1,0,0,2] + x[1,3,2,3] <= 1
 move_1_2_00_33: x[1,0,0,2] + x[1,3,3,3] <= 1
 move_1_2_00_34: x[1,0,0,2] + x[1,3,4,3] <= 1
 move_1_2_00_40: x[1,0,0,2] + x[1,4,0,3] <= 1
 move_1_2_00_41: x[1,0,0,2] + x[1,4,1,3] <= 1
 move_1_2_00_42: x[1,0,0,2] + x[1,4,2,3] <= 1
 move_1_2_00_43: x[1,0,0,2] + x[1,4,3,3] <= 1
 move_1_2_00_44: x[1,0,0,2] + x[1,4,4,3] <= 1
 move_1_2_01_04: x[1,0,1,2] + x[1,0,4,3] <= 1
 move_1_2_01_13: x[1,0,1,2] + x[1,1,3,3] <= 1
 move_1_2_01_14: x[1,0,1,2] + x[1,1,4,3] <= 1
 move_1_2_01_20: x[1,0,1,2] + x[1,2,0,3] <= 1
 move_1_2_01_22: x[1,0,1,2] + x[1,2,2,3] <= 1
 move_1_2_01_23: x[1,0,1,2] + x[1,2,3,3] <= 1
 move_1_2_01_24: x[1,0,1,2] + x[1,2,4,3] <= 1
 move_1_2_01_30: x[1,0,1,2] + x[1,3,0,3] <= 1
 move_1_2_01_31: x[1,0,1,2] + x[1,3,1,3] <= 1
 move_1_2_01_32: x[1,0,1,2] + x[1,3,2,3] <= 1
 move_1_2_01_33: x[1,0,1,2] + x[1,3,3,3] <= 1
 move_1_2_01_34: x[1,0,1,2] + x[1,3,4,3] <= 1
 move_1_2_01_40: x[1,0,1,2] + x[1,4,0,3] <= 1
 move_1_2_01_41: x[1,0,1,2] + x[1,4,1,3] <= 1
 move_1_2_01_42: x[1,0,1,2] + x[1,4,2,3] <= 1
 move_1_2_01_43: x[1,0,1,2] + x[1,4,3,3] <= 1
 move_1_2_01_44: x[1,0,1,2] + x[1,4,4,3] <= 1
 move_1_2_02_10: x[1,0,2,2] + x[1,1,0,3] <= 1
 move_1_2_02_14: x[1,0,2,2] + x[1,1,4,3] <= 1
 move_1_2_02_20: x[1,0,2,2] + x[1,2,0,3] <= 1
 move_1_2_02_21: x[1,0,2,2] + x[1,2,1,3] <= 1
 move_1_2_02_23: x[1,0,2,2] + x[1,2,3,3] <= 1
 move_1_2_02_24: x[1,0,2,2] + x[1,2,4,3] <= 1
 move_1_2_02_30: x[1,0,2,2] + x[1,3,0,3] <= 1
 move_1_2_02_31: x[1,0,2,2] + x[1,3,1,3] <= 1
 move_1_2_02_32: x[1,0,2,2] + x[1,3,2,3] <= 1
 move_1_2_02_33: x[1,0,2,2] + x[1,3,3,3] <= 1
 move_1_2_02_34: x[1,0,2,2] + x[1,3,4,3] <= 1
 move_1_2_02_40: x[1,0,2,2] + x[1,4,0,3] <= 1
 move_1_2_02_41: x[1,0,2,2] + x[1,4,1,3] <= 1
 move_1_2_02_42: x[1,0,2,2] + x[1,4,2,3] <= 1
 move_1_2_02_43: x[1,0,2,2] + x[1,4,3,3] <= 1
 move_1_2_02_44: x[1,0,2,2] + x[1,4,4,3] <= 1
 move_1_2_03_00: x[1,0,0,3] + x[1,0,3,2] <= 1
 move_1_2_03_10: x[1,0,3,2] + x[1,1,0,3] <= 1
 move_1_2_03_11: x[1,0,3,2] + x[1,1,1,3] <= 1
 move_1_2_03_20: x[1,0,3,2] + x[1,2,0,3] <= 1
 move_1_2_03_21: x[1,0,3,2] + x[1,2,1,3] <= 1
 move_1_2_03_22: x[1,0,3,2] + x[1,2,2,3] <= 1
 move_1_2_03_24: x[1,0,3,2] + x[1,2,4,3] <= 1
 move_1_2_03_30: x[1,0,3,2] + x[1,3,0,3] <= 1
 move_1_2_03_31: x[1,0,3,2] + x[1,3,1,3] <= 1
 move_1_2_03_32: x[1,0,3,2] + x[1,3,2,3] <= 1
 move_1_2_03_33: x[1,0,3,2] + x[1,3,3,3] <= 1
 move_1_2_03_34: x[1,0,3,2] + x[1,3,4,3] <= 1
 move_1_2_03_40: x[1,0,3,2] + x[1,4,0,3] <= 1
 move_1_2_03_41: x[1,0,3,2] + x[1,4,1,3] <= 1
 move_1_2_03_42: x[1,0,3,2] + x[1,4,2,3] <= 1
 move_1_2_03_43: x[1,0,3,2] + x[1,4,3,3] <= 1
 move_1_2_03_44: x[1,0,3,2] + x[1,4,4,3] <= 1
 move_1_2_04_00: x[1,0,0,3] + x[1,0,4,2] <= 1
 move_1_2_04_01: x[1,0,1,3] + x[1,0,4,2] <= 1
 move_1_2_04_10: x[1,0,4,2] + x[1,1,0,3] <= 1
 move_1_2_04_11: x[1,0,4,2] + x[1,1,1,3] <= 1
 move_1_2_04_12: x[1,0,4,2] + x[1,1,2,3] <= 1
 move_1_2_04_20: x[1,0,4,2] + x[1,2,0,3] <= 1
 move_1_2_04_21: x[1,0,4,2] + x[1,2,1,3] <= 1
 move_1_2_04_22: x[1,0,4,2] + x[1,2,2,3] <= 1
 move_1_2_04_23: x[1,0,4,2] + x[1,2,3,3] <= 1
 move_1_2_04_30: x[1,0,4,2] + x[1,3,0,3] <= 1
 move_1_2_04_31: x[1,0,4,2] + x[1,3,1,3] <= 1
 move_1_2_04_32: x[1,0,4,2] + x[1,3,2,3] <= 1
 move_1_2_04_33: x[1,0,4,2] + x[1,3,3,3] <= 1
 move_1_2_04_34: x[1,0,4,2] + x[1,3,4,3] <= 1
 move_1_2_04_40: x[1,0,4,2] + x[1,4,0,3] <= 1
 move_1_2_04_41: x[1,0,4,2] + x[1,4,1,3] <= 1
 move_1_2_04_42: x[1,0,4,2] + x[1,4,2,3] <= 1
 move_1_2_04_43: x[1,0,4,2] + x[1,4,3,3] <= 1
 move_1_2_04_44: x[1,0,4,2] + x[1,4,4,3] <= 1
 move_1_2_10_02: x[1,0,2,3] + x[1,1,0,2] <= 1
 move_1_2_10_03: x[1,0,3,3] + x[1,1,0,2] <= 1
 move_1_2_10_04: x[1,0,4,3] + x[1,1,0,2] <= 1
 move_1_2_10_13: x[1,1,0,2] + x[1,1,3,3] <= 1
 move_1_2_10_14: x[1,1,0,2] + x[1,1,4,3] <= 1
 move_1_2_10_22: x[1,1,0,2] + x[1,2,2,3] <= 1
 move_1_2_10_23: x[1,1,0,2] + x[1,2,3,3] <= 1
 move_1_2_10_24: x[1,1,0,2] + x[1,2,4,3] <= 1
 move_1_2_10_31: x[1,1,0,2] + x[1,3,1,3] <= 1
 move_1_2_10_32: x[1,1,0,2] + x[1,3,2,3] <= 1
 move_1_2_10_33: x[1,1,0,2] + x[1,3,3,3] <= 1
 move_1_2_10_34: x[1,1,0,2] + x[1,3,4,3] <= 1
 move_1_2_10_40: x[1,1,0,2] + x[1,4,0,3] <= 1
 move_1_2_10_41: x[1,1,0,2] + x[1,4,1,3] <= 1
 move_1_2_10_42: x[1,1,0,2] + x[1,4,2,3] <= 1
 move_1_2_10_43: x[1,1,0,2] + x[1,4,3,3] <= 1
 move_1_2_10_44: x[1,1,0,2] + x[1,4,4,3] <= 1
 move_1_2_11_03: x[1,0,3,3] + x[1,1,1,2] <= 1
 move_1_2_11_04: x[1,0,4,3] + x[1,1,1,2] <= 1
 move_1_2_11_14: x[1,1,1,2] + x[1,1,4,3] <= 1
 move_1_2_11_23: x[1,1,1,2] + x[1,2,3,3] <= 1
 move_1_2_11_24: x[1,1,1,2] + x[1,2,4,3] <= 1
 move_1_2_11_30: x[1,1,1,2] + x[1,3,0,3] <= 1
 move_1_2_11_32: x[1,1,1,2] + x[1,3,2,3] <= 1
 move_1_2_11_33: x[1,1,1,2] + x[1,3,3,3] <= 1
 move_1_2_11_34: x[1,1,1,2] + x[1,3,4,3] <= 1
 move_1_2_11_40: x[1,1,1,2] + x[1,4,0,3] <= 1
 move_1_2_11_41: x[1,1,1,2] + x[1,4,1,3] <= 1
 move_1_2_11_42: x[1,1,1,2] + x[1,4,2,3] <= 1
 move_1_2_11_43: x[1,1,1,2] + x[1,4,3,3] <= 1
 move_1_2_11_44: x[1,1,1,2] + x[1,4,4,3] <= 1
 move_1_2_12_00: x[1,0,0,3] + x[1,1,2,2] <= 1
 move_1_2_12_04: x[1,0,4,3] + x[1,1,2,2] <= 1
 move_1_2_12_20: x[1,1,2,2] + x[1,2,0,3] <= 1
 move_1_2_12_24: x[1,1,2,2] + x[1,2,4,3] <= 1
 move_1_2_12_30: x[1,1,2,2] + x[1,3,0,3] <= 1
 move_1_2_12_31: x[1,1,2,2] + x[1,3,1,3] <= 1
 move_1_2_12_33: x[1,1,2,2] + x[1,3,3,3] <= 1
 move_1_2_12_34: x[1,1,2,2] + x[1,3,4,3] <= 1
 move_1_2_12_40: x[1,1,2,2] + x[1,4,0,3] <= 1
 move_1_2_12_41: x[1,1,2,2] + x[1,4,1,3] <= 1
 move_1_2_12_42: x[1,1,2,2] + x[1,4,2,3] <= 1
 move_1_2_12_43: x[1,1,2,2] + x[1,4,3,3] <= 1
 move_1_2_12_44: x[1,1,2,2] + x[1,4,4,3] <= 1
 move_1_2_13_00: x[1,0,0,3] + x[1,1,3,2] <= 1
 move_1_2_13_01: x[1,0,1,3] + x[1,1,3,2] <= 1
 move_1_2_13_10: x[1,1,0,3] + x[1,1,3,2] <= 1
 move_1_2_13_20: x[1,1,3,2] + x[1,2,0,3] <= 1
 move_1_2_13_21: x[1,1,3,2] + x[1,2,1,3] <= 1
 move_1_2_13_30: x[1,1,3,2] + x[1,3,0,3] <= 1
 move_1_2_13_31: x[1,1,3,2] + x[1,3,1,3] <= 1
 move_1_2_13_32: x[1,1,3,2] + x[1,3,2,3] <= 1
 move_1_2_13_34: x[1,1,3,2] + x[1,3,4,3] <= 1
 move_1_2_13_40: x[1,1,3,2] + x[1,4,0,3] <= 1
 move_1_2_13_41: x[1,1,3,2] + x[1,4,1,3] <= 1
 move_1_2_13_42: x[1,1,3,2] + x[1,4,2,3] <= 1
 move_1_2_13_43: x[1,1,3,2] + x[1,4,3,3] <= 1
 move_1_2_13_44: x[1,1,3,2] + x[1,4,4,3] <= 1
 move_1_2_14_00: x[1,0,0,3] + x[1,1,4,2] <= 1
 move_1_2_14_01: x[1,0,1,3] + x[1,1,4,2] <= 1
 move_1_2_14_02: x[1,0,2,3] + x[1,1,4,2] <= 1
 move_1_2_14_10: x[1,1,0,3] + x[1,1,4,2] <= 1
 move_1_2_14_11: x[1,1,1,3] + x[1,1,4,2] <= 1
 move_1_2_14_20: x[1,1,4,2] + x[1,2,0,3] <= 1
 move_1_2_14_21: x[1,1,4,2] + x[1,2,1,3] <= 1
 move_1_2_14_22: x[1,1,4,2] + x[1,2,2,3] <= 1
 move_1_2_14_30: x[1,1,4,2] + x[1,3,0,3] <= 1
 move_1_2_14_31: x[1,1,4,2] + x[1,3,1,3] <= 1
 move_1_2_14_32: x[1,1,4,2] + x[1,3,2,3] <= 1
 move_1_2_14_33: x[1,1,4,2] + x[1,3,3,3] <= 1
 move_1_2_14_40: x[1,1,4,2] + x[1,4,0,3] <= 1
 move_1_2_14_41: x[1,1,4,2] + x[1,4,1,3] <= 1
 move_1_2_14_42: x[1,1,4,2] + x[1,4,2,3] <= 1
 move_1_2_14_43: x[1,1,4,2] + x[1,4,3,3] <= 1
 move_1_2_14_44: x[1,1,4,2] + x[1,4,4,3] <= 1
 move_1_2_20_01: x[1,0,1,3] + x[1,2,0,2] <= 1
 move_1_2_20_02: x[1,0,2,3] + x[1,2,0,2] <= 1
 move_1_2_20_03: x[1,0,3,3] + x[1,2,0,2] <= 1
 move_1_2_20_04: x[1,0,4,3] + x[1,2,0,2] <= 1
 move_1_2_20_12: x[1,1,2,3] + x[1,2,0,2] <= 1
 move_1_2_20_13: x[1,1,3,3] + x[1,2,0,2] <= 1
 move_1_2_20_14: x[1,1,4,3] + x[1,2,0,2] <= 1
 move_1_2_20_23: x[1,2,0,2] + x[1,2,3,3] <= 1
 move_1_2_20_24: x[1,2,0,2] + x[1,2,4,3] <= 1
 move_1_2_20_32: x[1,2,0,2] + x[1,3,2,3] <= 1
 move_1_2_20_33: x[1,2,0,2] + x[1,3,3,3] <= 1
 move_1_2_20_34: x[1,2,0,2] + x[1,3,4,3] <= 1
 move_1_2_20_41: x[1,2,0,2] + x[1,4,1,3] <= 1
 move_1_2_20_42: x[1,2,0,2] + x[1,4,2,3] <= 1
 move_1_2_20_43: x[1,2,0,2] + x[1,4,3,3] <= 1
 move_1_2_20_44: x[1,2,0,2] + x[1,4,4,3] <= 1
 move_1_2_21_00: x[1,0,0,3] + x[1,2,1,2] <= 1
 move_1_2_21_02: x[1,0,2,3] + x[1,2,1,2] <= 1
 move_1_2_21_03: x[1,0,3,3] + x[1,2,1,2] <= 1
 move_1_2_21_04: x[1,0,4,3] + x[1,2,1,2] <= 1
 move_1_2_21_13: x[1,1,3,3] + x[1,2,1,2] <= 1
 move_1_2_21_14: x[1,1,4,3] + x[1,2,1,2] <= 1
 move_1_2_21_24: x[1,2,1,2] + x[1,2,4,3] <= 1
 move_1_2_21_33: x[1,2,1,2] + x[1,3,3,3] <= 1
 move_1_2_21_34: x[1,2,1,2] + x[1,3,4,3] <= 1
 move_1_2_21_40: x[1,2,1,2] + x[1,4,0,3] <= 1
 move_1_2_21_42: x[1,2,1,2] + x[1,4,2,3] <= 1
 move_1_2_21_43: x[1,2,1,2] + x[1,4,3,3] <= 1
 move_1_2_21_44: x[1,2,1,2] + x[1,4,4,3] <= 1
 move_1_2_22_00: x[1,0,0,3] + x[1,2,2,2] <= 1
 move_1_2_22_01: x[1,0,1,3] + x[1,2,2,2] <= 1
 move_1_2_22_03: x[1,0,3,3] + x[1,2,2,2] <= 1
 move_1_2_22_04: x[1,0,4,3] + x[1,2,2,2] <= 1
 move_1_2_22_10: x[1,1,0,3] + x[1,2,2,2] <= 1
 move_1_2_22_14: x[1,1,4,3] + x[1,2,2,2] <= 1
 move_1_2_22_30: x[1,2,2,2] + x[1,3,0,3] <= 1
 move_1_2_22_34: x[1,2,2,2] + x[1,3,4,3] <= 1
 move_1_2_22_40: x[1,2,2,2] + x[1,4,0,3] <= 1
 move_1_2_22_41: x[1,2,2,2] + x[1,4,1,3] <= 1
 move_1_2_22_43: x[1,2,2,2] + x[1,4,3,3] <= 1
 move_1_2_22_44: x[1,2,2,2] + x[1,4,4,3] <= 1
 move_1_2_23_00: x[1,0,0,3] + x[1,2,3,2] <= 1
 move_1_2_23_01: x[1,0,1,3] + x[1,2,3,2] <= 1
 move_1_2_23_02: x[1,0,2,3] + x[1,2,3,2] <= 1
 move_1_2_23_04: x[1,0,4,3] + x[1,2,3,2] <= 1
 move_1_2_23_10: x[1,1,0,3] + x[1,2,3,2] <= 1
 move_1_2_23_11: x[1,1,1,3] + x[1,2,3,2] <= 1
 move_1_2_23_20: x[1,2,0,3] + x[1,2,3,2] <= 1
 move_1_2_23_30: x[1,2,3,2] + x[1,3,0,3] <= 1
 move_1_2_23_31: x[1,2,3,2] + x[1,3,1,3] <= 1
 move_1_2_23_40: x[1,2,3,2] + x[1,4,0,3] <= 1
 move_1_2_23_41: x[1,2,3,2] + x[1,4,1,3] <= 1
 move_1_2_23_42: x[1,2,3,2] + x[1,4,2,3] <= 1
 move_1_2_23_44: x[1,2,3,2] + x[1,4,4,3] <= 1
 move_1_2_24_00: x[1,0,0,3] + x[1,2,4,2] <= 1
 move_1_2_24_01: x[1,0,1,3] + x[1,2,4,2] <= 1
 move_1_2_24_02: x[1,0,2,3] + x[1,2,4,2] <= 1
 move_1_2_24_03: x[1,0,3,3] + x[1,2,4,2] <= 1
 move_1_2_24_10: x[1,1,0,3] + x[1,2,4,2] <= 1
 move_1_2_24_11: x[1,1,1,3] + x[1,2,4,2] <= 1
 move_1_2_24_12: x[1,1,2,3] + x[1,2,4,2] <= 1
 move_1_2_24_20: x[1,2,0,3] + x[1,2,4,2] <= 1
 move_1_2_24_21: x[1,2,1,3] + x[1,2,4,2] <= 1
 move_1_2_24_30: x[1,2,4,2] + x[1,3,0,3] <= 1
 move_1_2_24_31: x[1,2,4,2] + x[1,3,1,3] <= 1
 move_1_2_24_32: x[1,2,4,2] + x[1,3,2,3] <= 1
 move_1_2_24_40: x[1,2,4,2] + x[1,4,0,3] <= 1
 move_1_2_24_41: x[1,2,4,2] + x[1,4,1,3] <= 1
 move_1_2_24_42: x[1,2,4,2] + x[1,4,2,3] <= 1
 move_1_2_24_43: x[1,2,4,2] + x[1,4,3,3] <= 1
 move_1_2_30_00: x[1,0,0,3] + x[1,3,0,2] <= 1
 move_1_2_30_01: x[1,0,1,3] + x[1,3,0,2] <= 1
 move_1_2_30_02: x[1,0,2,3] + x[1,3,0,2] <= 1
 move_1_2_30_03: x[1,0,3,3] + x[1,3,0,2] <= 1
 move_1_2_30_04: x[1,0,4,3] + x[1,3,0,2] <= 1
 move_1_2_30_11: x[1,1,1,3] + x[1,3,0,2] <= 1
 move_1_2_30_12: x[1,1,2,3] + x[1,3,0,2] <= 1
 move_1_2_30_13: x[1,1,3,3] + x[1,3,0,2] <= 1
 move_1_2_30_14: x[1,1,4,3] + x[1,3,0,2] <= 1
 move_1_2_30_22: x[1,2,2,3] + x[1,3,0,2] <= 1
 move_1_2_30_23: x[1,2,3,3] + x[1,3,0,2] <= 1
 move_1_2_30_24: x[1,2,4,3] + x[1,3,0,2] <= 1
 move_1_2_30_33: x[1,3,0,2] + x[1,3,3,3] <= 1
 move_1_2_30_34: x[1,3,0,2] + x[1,3,4,3] <= 1
 move_1_2_30_42: x[1,3,0,2] + x[1,4,2,3] <= 1
 move_1_2_30_43: x[1,3,0,2] + x[1,4,3,3] <= 1
 move_1_2_30_44: x[1,3,0,2] + x[1,4,4,3] <= 1
 move_1_2_31_00: x[1,0,0,3] + x[1,3,1,2] <= 1
 move_1_2_31_01: x[1,0,1,3] + x[1,3,1,2] <= 1
 move_1_2_31_02: x[1,0,2,3] + x[1,3,1,2] <= 1
 move_1_2_31_03: x[1,0,3,3] + x[1,3,1,2] <= 1
 move_1_2_31_04: x[1,0,4,3] + x[1,3,1,2] <= 1
 move_1_2_31_10: x[1,1,0,3] + x[1,3,1,2] <= 1
 move_1_2_31_12: x[1,1,2,3] + x[1,3,1,2] <= 1
 move_1_2_31_13: x[1,1,3,3] + x[1,3,1,2] <= 1
 move_1_2_31_14: x[1,1,4,3] + x[1,3,1,2] <= 1
 move_1_2_31_23: x[1,2,3,3] + x[1,3,1,2] <= 1
 move_1_2_31_24: x[1,2,4,3] + x[1,3,1,2] <= 1
 move_1_2_31_34: x[1,3,1,2] + x[1,3,4,3] <= 1
 move_1_2_31_43: x[1,3,1,2] + x[1,4,3,3] <= 1
 move_1_2_31_44: x[1,3,1,2] + x[1,4,4,3] <= 1
 move_1_2_32_00: x[1,0,0,3] + x[1,3,2,2] <= 1
 move_1_2_32_01: x[1,0,1,3] + x[1,3,2,2] <= 1
 move_1_2_32_02: x[1,0,2,3] + x[1,3,2,2] <= 1
 move_1_2_32_03: x[1,0,3,3] + x[1,3,2,2] <= 1
 move_1_2_32_04: x[1,0,4,3] + x[1,3,2,2] <= 1
 move_1_2_32_10: x[1,1,0,3] + x[1,3,2,2] <= 1
 move_1_2_32_11: x[1,1,1,3] + x[1,3,2,2] <= 1
 move_1_2_32_13: x[1,1,3,3] + x[1,3,2,2] <= 1
 move_1_2_32_14: x[1,1,4,3] + x[1,3,2,2] <= 1
 move_1_2_32_20: x[1,2,0,3] + x[1,3,2,2] <= 1
 move_1_2_32_24: x[1,2,4,3] + x[1,3,2,2] <= 1
 move_1_2_32_40: x[1,3,2,2] + x[1,4,0,3] <= 1
 move_1_2_32_44: x[1,3,2,2] + x[1,4,4,3] <= 1
 move_1_2_33_00: x[1,0,0,3] + x[1,3,3,2] <= 1
 move_1_2_33_01: x[1,0,1,3] + x[1,3,3,2] <= 1
 move_1_2_33_02: x[1,0,2,3] + x[1,3,3,2] <= 1
 move_1_2_33_03: x[1,0,3,3] + x[1,3,3,2] <= 1
 move_1_2_33_04: x[1,0,4,3] + x[1,3,3,2] <= 1
 move_1_2_33_10: x[1,1,0,3] + x[1,3,3,2] <= 1
 move_1_2_33_11: x[1,1,1,3] + x[1,3,3,2] <= 1
 move_1_2_33_12: x[1,1,2,3] + x[1,3,3,2] <= 1
 move_1_2_33_14: x[1,1,4,3] + x[1,3,3,2] <= 1
 move_1_2_33_20: x[1,2,0,3] + x[1,3,3,2] <= 1
 move_1_2_33_21: x[1,2,1,3] + x[1,3,3,2] <= 1
 move_1_2_33_30: x[1,3,0,3] + x[1,3,3,2] <= 1
 move_1_2_33_40: x[1,3,3,2] + x[1,4,0,3] <= 1
 move_1_2_33_41: x[1,3,3,2] + x[1,4,1,3] <= 1
 move_1_2_34_00: x[1,0,0,3] + x[1,3,4,2] <= 1
 move_1_2_34_01: x[1,0,1,3] + x[1,3,4,2] <= 1
 move_1_2_34_02: x[1,0,2,3] + x[1,3,4,2] <= 1
 move_1_2_34_03: x[1,0,3,3] + x[1,3,4,2] <= 1
 move_1_2_34_04: x[1,0,4,3] + x[1,3,4,2] <= 1
 move_1_2_34_10: x[1,1,0,3] + x[1,3,4,2] <= 1
 move_1_2_34_11: x[1,1,1,3] + x[1,3,4,2] <= 1
 move_1_2_34_12: x[1,1,2,3] + x[1,3,4,2] <= 1
 move_1_2_34_13: x[1,1,3,3] + x[1,3,4,2] <= 1
 move_1_2_34_20: x[1,2,0,3] + x[1,3,4,2] <= 1
 move_1_2_34_21: x[1,2,1,3] + x[1,3,4,2] <= 1
 move_1_2_34_22: x[1,2,2,3] + x[1,3,4,2] <= 1
 move_1_2_34_30: x[1,3,0,3] + x[1,3,4,2] <= 1
 move_1_2_34_31: x[1,3,1,3] + x[1,3,4,2] <= 1
 move_1_2_34_40: x[1,3,4,2] + x[1,4,0,3] <= 1
 move_1_2_34_41: x[1,3,4,2] + x[1,4,1,3] <= 1
 move_1_2_34_42: x[1,3,4,2] + x[1,4,2,3] <= 1
 move_1_2_40_00: x[1,0,0,3] + x[1,4,0,2] <= 1
 move_1_2_40_01: x[1,0,1,3] + x[1,4,0,2] <= 1
 move_1_2_40_02: x[1,0,2,3] + x[1,4,0,2] <= 1
 move_1_2_40_03: x[1,0,3,3] + x[1,4,0,2] <= 1
 move_1_2_40_04: x[1,0,4,3] + x[1,4,0,2] <= 1
 move_1_2_40_10: x[1,1,0,3] + x[1,4,0,2] <= 1
 move_1_2_40_11: x[1,1,1,3] + x[1,4,0,2] <= 1
 move_1_2_40_12: x[1,1,2,3] + x[1,4,0,2] <= 1
 move_1_2_40_13: x[1,1,3,3] + x[1,4,0,2] <= 1
 move_1_2_40_14: x[1,1,4,3] + x[1,4,0,2] <= 1
 move_1_2_40_21: x[1,2,1,3] + x[1,4,0,2] <= 1
 move_1_2_40_22: x[1,2,2,3] + x[1,4,0,2] <= 1
 move_1_2_40_23: x[1,2,3,3] + x[1,4,0,2] <= 1
 move_1_2_40_24: x[1,2,4,3] + x[1,4,0,2] <= 1
 move_1_2_40_32: x[1,3,2,3] + x[1,4,0,2] <= 1
 move_1_2_40_33: x[1,3,3,3] + x[1,4,0,2] <= 1
 move_1_2_40_34: x[1,3,4,3] + x[1,4,0,2] <= 1
 move_1_2_40_43: x[1,4,0,2] + x[1,4,3,3] <= 1
 move_1_2_40_44: x[1,4,0,2] + x[1,4,4,3] <= 1
 move_1_2_41_00: x[1,0,0,3] + x[1,4,1,2] <= 1
 move_1_2_41_01: x[1,0,1,3] + x[1,4,1,2] <= 1
 move_1_2_41_02: x[1,0,2,3] + x[1,4,1,2] <= 1
 move_1_2_41_03: x[1,0,3,3] + x[1,4,1,2] <= 1
 move_1_2_41_04: x[1,0,4,3] + x[1,4,1,2] <= 1
 move_1_2_41_10: x[1,1,0,3] + x[1,4,1,2] <= 1
 move_1_2_41_11: x[1,1,1,3] + x[1,4,1,2] <= 1
 move_1_2_41_12: x[1,1,2,3] + x[1,4,1,2] <= 1
 move_1_2_41_13: x[1,1,3,3] + x[1,4,1,2] <= 1
 move_1_2_41_14: x[1,1,4,3] + x[1,4,1,2] <= 1
 move_1_2_41_20: x[1,2,0,3] + x[1,4,1,2] <= 1
 move_1_2_41_22: x[1,2,2,3] + x[1,4,1,2] <= 1
 move_1_2_41_23: x[1,2,3,3] + x[1,4,1,2] <= 1
 move_1_2_41_24: x[1,2,4,3] + x[1,4,1,2] <= 1
 move_1_2_41_33: x[1,3,3,3] + x[1,4,1,2] <= 1
 move_1_2_41_34: x[1,3,4,3] + x[1,4,1,2] <= 1
 move_1_2_41_44: x[1,4,1,2] + x[1,4,4,3] <= 1
 move_1_2_42_00: x[1,0,0,3] + x[1,4,2,2] <= 1
 move_1_2_42_01: x[1,0,1,3] + x[1,4,2,2] <= 1
 move_1_2_42_02: x[1,0,2,3] + x[1,4,2,2] <= 1
 move_1_2_42_03: x[1,0,3,3] + x[1,4,2,2] <= 1
 move_1_2_42_04: x[1,0,4,3] + x[1,4,2,2] <= 1
 move_1_2_42_10: x[1,1,0,3] + x[1,4,2,2] <= 1
 move_1_2_42_11: x[1,1,1,3] + x[1,4,2,2] <= 1
 move_1_2_42_12: x[1,1,2,3] + x[1,4,2,2] <= 1
 move_1_2_42_13: x[1,1,3,3] + x[1,4,2,2] <= 1
 move_1_2_42_14: x[1,1,4,3] + x[1,4,2,2] <= 1
 move_1_2_42_20: x[1,2,0,3] + x[1,4,2,2] <= 1
 move_1_2_42_21: x[1,2,1,3] + x[1,4,2,2] <= 1
 move_1_2_42_23: x[1,2,3,3] + x[1,4,2,2] <= 1
 move_1_2_42_24: x[1,2,4,3] + x[1,4,2,2] <= 1
 move_1_2_42_30: x[1,3,0,3] + x[1,4,2,2] <= 1
 move_1_2_42_34: x[1,3,4,3] + x[1,4,2,2] <= 1
 move_1_2_43_00: x[1,0,0,3] + x[1,4,3,2] <= 1
 move_1_2_43_01: x[1,0,1,3] + x[1,4,3,2] <= 1
 move_1_2_43_02: x[1,0,2,3] + x[1,4,3,2] <= 1
 move_1_2_43_03: x[1,0,3,3] + x[1,4,3,2] <= 1
 move_1_2_43_04: x[1,0,4,3] + x[1,4,3,2] <= 1
 move_1_2_43_10: x[1,1,0,3] + x[1,4,3,2] <= 1
 move_1_2_43_11: x[1,1,1,3] + x[1,4,3,2] <= 1
 move_1_2_43_12: x[1,1,2,3] + x[1,4,3,2] <= 1
 move_1_2_43_13: x[1,1,3,3] + x[1,4,3,2] <= 1
 move_1_2_43_14: x[1,1,4,3] + x[1,4,3,2] <= 1
 move_1_2_43_20: x[1,2,0,3] + x[1,4,3,2] <= 1
 move_1_2_43_21: x[1,2,1,3] + x[1,4,3,2] <= 1
 move_1_2_43_22: x[1,2,2,3] + x[1,4,3,2] <= 1
 move_1_2_43_24: x[1,2,4,3] + x[1,4,3,2] <= 1
 move_1_2_43_30: x[1,3,0,3] + x[1,4,3,2] <= 1
 move_1_2_43_31: x[1,3,1,3] + x[1,4,3,2] <= 1
 move_1_2_43_40: x[1,4,0,3] + x[1,4,3,2] <= 1
 move_1_2_44_00: x[1,0,0,3] + x[1,4,4,2] <= 1
 move_1_2_44_01: x[1,0,1,3] + x[1,4,4,2] <= 1
 move_1_2_44_02: x[1,0,2,3] + x[1,4,4,2] <= 1
 move_1_2_44_03: x[1,0,3,3] + x[1,4,4,2] <= 1
 move_1_2_44_04: x[1,0,4,3] + x[1,4,4,2] <= 1
 move_1_2_44_10: x[1,1,0,3] + x[1,4,4,2] <= 1
 move_1_2_44_11: x[1,1,1,3] + x[1,4,4,2] <= 1
 move_1_2_44_12: x[1,1,2,3] + x[1,4,4,2] <= 1
 move_1_2_44_13: x[1,1,3,3] + x[1,4,4,2] <= 1
 move_1_2_44_14: x[1,1,4,3] + x[1,4,4,2] <= 1
 move_1_2_44_20: x[1,2,0,3] + x[1,4,4,2] <= 1
 move_1_2_44_21: x[1,2,1,3] + x[1,4,4,2] <= 1
 move_1_2_44_22: x[1,2,2,3] + x[1,4,4,2] <= 1
 move_1_2_44_23: x[1,2,3,3] + x[1,4,4,2] <= 1
 move_1_2_44_30: x[1,3,0,3] + x[1,4,4,2] <= 1
 move_1_2_44_31: x[1,3,1,3] + x[1,4,4,2] <= 1
 move_1_2_44_32: x[1,3,2,3] + x[1,4,4,2] <= 1
 move_1_2_44_40: x[1,4,0,3] + x[1,4,4,2] <= 1
 move_1_2_44_41: x[1,4,1,3] + x[1,4,4,2] <= 1
 move_1_3_00_03: x[1,0,0,3] + x[1,0,3,4] <= 1
 move_1_3_00_04: x[1,0,0,3] + x[1,0,4,4] <= 1
 move_1_3_00_12: x[1,0,0,3] + x[1,1,2,4] <= 1
 move_1_3_00_13: x[1,0,0,3] + x[1,1,3,4] <= 1
 move_1_3_00_14: x[1,0,0,3] + x[1,1,4,4] <= 1
 move_1_3_00_21: x[1,0,0,3] + x[1,2,1,4] <= 1
 move_1_3_00_22: x[1,0,0,3] + x[1,2,2,4] <= 1
 move_1_3_00_23: x[1,0,0,3] + x[1,2,3,4] <= 1
 move_1_3_00_24: x[1,0,0,3] + x[1,2,4,4] <= 1
 move_1_3_00_30: x[1,0,0,3] + x[1,3,0,4] <= 1
 move_1_3_00_31: x[1,0,0,3] + x[1,3,1,4] <= 1
 move_1_3_00_32: x[1,0,0,3] + x[1,3,2,4] <= 1
 move_1_3_00_33: x[1,0,0,3] + x[1,3,3,4] <= 1
 move_1_3_00_34: x[1,0,0,3] + x[1,3,4,4] <= 1
 move_1_3_00_40: x[1,0,0,3] + x[1,4,0,4] <= 1
 move_1_3_00_41: x[1,0,0,3] + x[1,4,1,4] <= 1
 move_1_3_00_42: x[1,0,0,3] + x[1,4,2,4] <= 1
 move_1_3_00_43: x[1,0,0,3] + x[1,4,3,4] <= 1
 move_1_3_00_44: x[1,0,0,3] + x[1,4,4,4] <= 1
 move_1_3_01_04: x[1,0,1,3] + x[1,0,4,4] <= 1
 move_1_3_01_13: x[1,0,1,3] + x[1,1,3,4] <= 1
 move_1_3_01_14: x[1,0,1,3] + x[1,1,4,4] <= 1
 move_1_3_01_20: x[1,0,1,3] + x[1,2,0,4] <= 1
 move_1_3_01_22: x[1,0,1,3] + x[1,2,2,4] <= 1
 move_1_3_01_23: x[1,0,1,3] + x[1,2,3,4] <= 1
 move_1_3_01_24: x[1,0,1,3] + x[1,2,4,4] <= 1
 move_1_3_01_30: x[1,0,1,3] + x[1,3,0,4] <= 1
 move_1_3_01_31: x[1,0,1,3] + x[1,3,1,4] <= 1
 move_1_3_01_32: x[1,0,1,3] + x[1,3,2,4] <= 1
 move_1_3_01_33: x[1,0,1,3] + x[1,3,3,4] <= 1
 move_1_3_01_34: x[1,0,1,3] + x[1,3,4,4] <= 1
 move_1_3_01_40: x[1,0,1,3] + x[1,4,0,4] <= 1
 move_1_3_01_41: x[1,0,1,3] + x[1,4,1,4] <= 1
 move_1_3_01_42: x[1,0,1,3] + x[1,4,2,4] <= 1
 move_1_3_01_43: x[1,0,1,3] + x[1,4,3,4] <= 1
 move_1_3_01_44: x[1,0,1,3] + x[1,4,4,4] <= 1
 move_1_3_02_10: x[1,0,2,3] + x[1,1,0,4] <= 1
 move_1_3_02_14: x[1,0,2,3] + x[1,1,4,4] <= 1
 move_1_3_02_20: x[1,0,2,3] + x[1,2,0,4] <= 1
 move_1_3_02_21: x[1,0,2,3] + x[1,2,1,4] <= 1
 move_1_3_02_23: x[1,0,2,3] + x[1,2,3,4] <= 1
 move_1_3_02_24: x[1,0,2,3] + x[1,2,4,4] <= 1
 move_1_3_02_30: x[1,0,2,3] + x[1,3,0,4] <= 1
 move_1_3_02_31: x[1,0,2,3] + x[1,3,1,4] <= 1
 move_1_3_02_32: x[1,0,2,3] + x[1,3,2,4] <= 1
 move_1_3_02_33: x[1,0,2,3] + x[1,3,3,4] <= 1
 move_1_3_02_34: x[1,0,2,3] + x[1,3,4,4] <= 1
 move_1_3_02_40: x[1,0,2,3] + x[1,4,0,4] <= 1
 move_1_3_02_41: x[1,0,2,3] + x[1,4,1,4] <= 1
 move_1_3_02_42: x[1,0,2,3] + x[1,4,2,4] <= 1
 move_1_3_02_43: x[1,0,2,3] + x[1,4,3,4] <= 1
 move_1_3_02_44: x[1,0,2,3] + x[1,4,4,4] <= 1
 move_1_3_03_00: x[1,0,0,4] + x[1,0,3,3] <= 1
 move_1_3_03_10: x[1,0,3,3] + x[1,1,0,4] <= 1
 move_1_3_03_11: x[1,0,3,3] + x[1,1,1,4] <= 1
 move_1_3_03_20: x[1,0,3,3] + x[1,2,0,4] <= 1
 move_1_3_03_21: x[1,0,3,3] + x[1,2,1,4] <= 1
 move_1_3_03_22: x[1,0,3,3] + x[1,2,2,4] <= 1
 move_1_3_03_24: x[1,0,3,3] + x[1,2,4,4] <= 1
 move_1_3_03_30: x[1,0,3,3] + x[1,3,0,4] <= 1
 move_1_3_03_31: x[1,0,3,3] + x[1,3,1,4] <= 1
 move_1_3_03_32: x[1,0,3,3] + x[1,3,2,4] <= 1
 move_1_3_03_33: x[1,0,3,3] + x[1,3,3,4] <= 1
 move_1_3_03_34: x[1,0,3,3] + x[1,3,4,4] <= 1
 move_1_3_03_40: x[1,0,3,3] + x[1,4,0,4] <= 1
 move_1_3_03_41: x[1,0,3,3] + x[1,4,1,4] <= 1
 move_1_3_03_42: x[1,0,3,3] + x[1,4,2,4] <= 1
 move_1_3_03_43: x[1,0,3,3] + x[1,4,3,4] <= 1
 move_1_3_03_44: x[1,0,3,3] + x[1,4,4,4] <= 1
 move_1_3_04_00: x[1,0,0,4] + x[1,0,4,3] <= 1
 move_1_3_04_01: x[1,0,1,4] + x[1,0,4,3] <= 1
 move_1_3_04_10: x[1,0,4,3] + x[1,1,0,4] <= 1
 move_1_3_04_11: x[1,0,4,3] + x[1,1,1,4] <= 1
 move_1_3_04_12: x[1,0,4,3] + x[1,1,2,4] <= 1
 move_1_3_04_20: x[1,0,4,3] + x[1,2,0,4] <= 1
 move_1_3_04_21: x[1,0,4,3] + x[1,2,1,4] <= 1
 move_1_3_04_22: x[1,0,4,3] + x[1,2,2,4] <= 1
 move_1_3_04_23: x[1,0,4,3] + x[1,2,3,4] <= 1
 move_1_3_04_30: x[1,0,4,3] + x[1,3,0,4] <= 1
 move_1_3_04_31: x[1,0,4,3] + x[1,3,1,4] <= 1
 move_1_3_04_32: x[1,0,4,3] + x[1,3,2,4] <= 1
 move_1_3_04_33: x[1,0,4,3] + x[1,3,3,4] <= 1
 move_1_3_04_34: x[1,0,4,3] + x[1,3,4,4] <= 1
 move_1_3_04_40: x[1,0,4,3] + x[1,4,0,4] <= 1
 move_1_3_04_41: x[1,0,4,3] + x[1,4,1,4] <= 1
 move_1_3_04_42: x[1,0,4,3] + x[1,4,2,4] <= 1
 move_1_3_04_43: x[1,0,4,3] + x[1,4,3,4] <= 1
 move_1_3_04_44: x[1,0,4,3] + x[1,4,4,4] <= 1
 move_1_3_10_02: x[1,0,2,4] + x[1,1,0,3] <= 1
 move_1_3_10_03: x[1,0,3,4] + x[1,1,0,3] <= 1
 move_1_3_10_04: x[1,0,4,4] + x[1,1,0,3] <= 1
 move_1_3_10_13: x[1,1,0,3] + x[1,1,3,4] <= 1
 move_1_3_10_14: x[1,1,0,3] + x[1,1,4,4] <= 1
 move_1_3_10_22: x[1,1,0,3] + x[1,2,2,4] <= 1
 move_1_3_10_23: x[1,1,0,3] + x[1,2,3,4] <= 1
 move_1_3_10_24: x[1,1,0,3] + x[1,2,4,4] <= 1
 move_1_3_10_31: x[1,1,0,3] + x[1,3,1,4] <= 1
 move_1_3_10_32: x[1,1,0,3] + x[1,3,2,4] <= 1
 move_1_3_10_33: x[1,1,0,3] + x[1,3,3,4] <= 1
 move_1_3_10_34: x[1,1,0,3] + x[1,3,4,4] <= 1
 move_1_3_10_40: x[1,1,0,3] + x[1,4,0,4] <= 1
 move_1_3_10_41: x[1,1,0,3] + x[1,4,1,4] <= 1
 move_1_3_10_42: x[1,1,0,3] + x[1,4,2,4] <= 1
 move_1_3_10_43: x[1,1,0,3] + x[1,4,3,4] <= 1
 move_1_3_10_44: x[1,1,0,3] + x[1,4,4,4] <= 1
 move_1_3_11_03: x[1,0,3,4] + x[1,1,1,3] <= 1
 move_1_3_11_04: x[1,0,4,4] + x[1,1,1,3] <= 1
 move_1_3_11_14: x[1,1,1,3] + x[1,1,4,4] <= 1
 move_1_3_11_23: x[1,1,1,3] + x[1,2,3,4] <= 1
 move_1_3_11_24: x[1,1,1,3] + x[1,2,4,4] <= 1
 move_1_3_11_30: x[1,1,1,3] + x[1,3,0,4] <= 1
 move_1_3_11_32: x[1,1,1,3] + x[1,3,2,4] <= 1
 move_1_3_11_33: x[1,1,1,3] + x[1,3,3,4] <= 1
 move_1_3_11_34: x[1,1,1,3] + x[1,3,4,4] <= 1
 move_1_3_11_40: x[1,1,1,3] + x[1,4,0,4] <= 1
 move_1_3_11_41: x[1,1,1,3] + x[1,4,1,4] <= 1
 move_1_3_11_42: x[1,1,1,3] + x[1,4,2,4] <= 1
 move_1_3_11_43: x[1,1,1,3] + x[1,4,3,4] <= 1
 move_1_3_11_44: x[1,1,1,3] + x[1,4,4,4] <= 1
 move_1_3_12_00: x[1,0,0,4] + x[1,1,2,3] <= 1
 move_1_3_12_04: x[1,0,4,4] + x[1,1,2,3] <= 1
 move_1_3_12_20: x[1,1,2,3] + x[1,2,0,4] <= 1
 move_1_3_12_24: x[1,1,2,3] + x[1,2,4,4] <= 1
 move_1_3_12_30: x[1,1,2,3] + x[1,3,0,4] <= 1
 move_1_3_12_31: x[1,1,2,3] + x[1,3,1,4] <= 1
 move_1_3_12_33: x[1,1,2,3] + x[1,3,3,4] <= 1
 move_1_3_12_34: x[1,1,2,3] + x[1,3,4,4] <= 1
 move_1_3_12_40: x[1,1,2,3] + x[1,4,0,4] <= 1
 move_1_3_12_41: x[1,1,2,3] + x[1,4,1,4] <= 1
 move_1_3_12_42: x[1,1,2,3] + x[1,4,2,4] <= 1
 move_1_3_12_43: x[1,1,2,3] + x[1,4,3,4] <= 1
 move_1_3_12_44: x[1,1,2,3] + x[1,4,4,4] <= 1
 move_1_3_13_00: x[1,0,0,4] + x[1,1,3,3] <= 1
 move_1_3_13_01: x[1,0,1,4] + x[1,1,3,3] <= 1
 move_1_3_13_10: x[1,1,0,4] + x[1,1,3,3] <= 1
 move_1_3_13_20: x[1,1,3,3] + x[1,2,0,4] <= 1
 move_1_3_13_21: x[1,1,3,3] + x[1,2,1,4] <= 1
 move_1_3_13_30: x[1,1,3,3] + x[1,3,0,4] <= 1
 move_1_3_13_31: x[1,1,3,3] + x[1,3,1,4] <= 1
 move_1_3_13_32: x[1,1,3,3] + x[1,3,2,4] <= 1
 move_1_3_13_34: x[1,1,3,3] + x[1,3,4,4] <= 1
 move_1_3_13_40: x[1,1,3,3] + x[1,4,0,4] <= 1
 move_1_3_13_41: x[1,1,3,3] + x[1,4,1,4] <= 1
 move_1_3_13_42: x[1,1,3,3] + x[1,4,2,4] <= 1
 move_1_3_13_43: x[1,1,3,3] + x[1,4,3,4] <= 1
 move_1_3_13_44: x[1,1,3,3] + x[1,4,4,4] <= 1
 move_1_3_14_00: x[1,0,0,4] + x[1,1,4,3] <= 1
 move_1_3_14_01: x[1,0,1,4] + x[1,1,4,3] <= 1
 move_1_3_14_02: x[1,0,2,4] + x[1,1,4,3] <= 1
 move_1_3_14_10: x[1,1,0,4] + x[1,1,4,3] <= 1
 move_1_3_14_11: x[1,1,1,4] + x[1,1,4,3] <= 1
 move_1_3_14_20: x[1,1,4,3] + x[1,2,0,4] <= 1
 move_1_3_14_21: x[1,1,4,3] + x[1,2,1,4] <= 1
 move_1_3_14_22: x[1,1,4,3] + x[1,2,2,4] <= 1
 move_1_3_14_30: x[1,1,4,3] + x[1,3,0,4] <= 1
 move_1_3_14_31: x[1,1,4,3] + x[1,3,1,4] <= 1
 move_1_3_14_32: x[1,1,4,3] + x[1,3,2,4] <= 1
 move_1_3_14_33: x[1,1,4,3] + x[1,3,3,4] <= 1
 move_1_3_14_40: x[1,1,4,3] + x[1,4,0,4] <= 1
 move_1_3_14_41: x[1,1,4,3] + x[1,4,1,4] <= 1
 move_1_3_14_42: x[1,1,4,3] + x[1,4,2,4] <= 1
 move_1_3_14_43: x[1,1,4,3] + x[1,4,3,4] <= 1
 move_1_3_14_44: x[1,1,4,3] + x[1,4,4,4] <= 1
 move_1_3_20_01: x[1,0,1,4] + x[1,2,0,3] <= 1
 move_1_3_20_02: x[1,0,2,4] + x[1,2,0,3] <= 1
 move_1_3_20_03: x[1,0,3,4] + x[1,2,0,3] <= 1
 move_1_3_20_04: x[1,0,4,4] + x[1,2,0,3] <= 1
 move_1_3_20_12: x[1,1,2,4] + x[1,2,0,3] <= 1
 move_1_3_20_13: x[1,1,3,4] + x[1,2,0,3] <= 1
 move_1_3_20_14: x[1,1,4,4] + x[1,2,0,3] <= 1
 move_1_3_20_23: x[1,2,0,3] + x[1,2,3,4] <= 1
 move_1_3_20_24: x[1,2,0,3] + x[1,2,4,4] <= 1
 move_1_3_20_32: x[1,2,0,3] + x[1,3,2,4] <= 1
 move_1_3_20_33: x[1,2,0,3] + x[1,3,3,4] <= 1
 move_1_3_20_34: x[1,2,0,3] + x[1,3,4,4] <= 1
 move_1_3_20_41: x[1,2,0,3] + x[1,4,1,4] <= 1
 move_1_3_20_42: x[1,2,0,3] + x[1,4,2,4] <= 1
 move_1_3_20_43: x[1,2,0,3] + x[1,4,3,4] <= 1
 move_1_3_20_44: x[1,2,0,3] + x[1,4,4,4] <= 1
 move_1_3_21_00: x[1,0,0,4] + x[1,2,1,3] <= 1
 move_1_3_21_02: x[1,0,2,4] + x[1,2,1,3] <= 1
 move_1_3_21_03: x[1,0,3,4] + x[1,2,1,3] <= 1
 move_1_3_21_04: x[1,0,4,4] + x[1,2,1,3] <= 1
 move_1_3_21_13: x[1,1,3,4] + x[1,2,1,3] <= 1
 move_1_3_21_14: x[1,1,4,4] + x[1,2,1,3] <= 1
 move_1_3_21_24: x[1,2,1,3] + x[1,2,4,4] <= 1
 move_1_3_21_33: x[1,2,1,3] + x[1,3,3,4] <= 1
 move_1_3_21_34: x[1,2,1,3] + x[1,3,4,4] <= 1
 move_1_3_21_40: x[1,2,1,3] + x[1,4,0,4] <= 1
 move_1_3_21_42: x[1,2,1,3] + x[1,4,2,4] <= 1
 move_1_3_21_43: x[1,2,1,3] + x[1,4,3,4] <= 1
 move_1_3_21_44: x[1,2,1,3] + x[1,4,4,4] <= 1
 move_1_3_22_00: x[1,0,0,4] + x[1,2,2,3] <= 1
 move_1_3_22_01: x[1,0,1,4] + x[1,2,2,3] <= 1
 move_1_3_22_03: x[1,0,3,4] + x[1,2,2,3] <= 1
 move_1_3_22_04: x[1,0,4,4] + x[1,2,2,3] <= 1
 move_1_3_22_10: x[1,1,0,4] + x[1,2,2,3] <= 1
 move_1_3_22_14: x[1,1,4,4] + x[1,2,2,3] <= 1
 move_1_3_22_30: x[1,2,2,3] + x[1,3,0,4] <= 1
 move_1_3_22_34: x[1,2,2,3] + x[1,3,4,4] <= 1
 move_1_3_22_40: x[1,2,2,3] + x[1,4,0,4] <= 1
 move_1_3_22_41: x[1,2,2,3] + x[1,4,1,4] <= 1
 move_1_3_22_43: x[1,2,2,3] + x[1,4,3,4] <= 1
 move_1_3_22_44: x[1,2,2,3] + x[1,4,4,4] <= 1
 move_1_3_23_00: x[1,0,0,4] + x[1,2,3,3] <= 1
 move_1_3_23_01: x[1,0,1,4] + x[1,2,3,3] <= 1
 move_1_3_23_02: x[1,0,2,4] + x[1,2,3,3] <= 1
 move_1_3_23_04: x[1,0,4,4] + x[1,2,3,3] <= 1
 move_1_3_23_10: x[1,1,0,4] + x[1,2,3,3] <= 1
 move_1_3_23_11: x[1,1,1,4] + x[1,2,3,3] <= 1
 move_1_3_23_20: x[1,2,0,4] + x[1,2,3,3] <= 1
 move_1_3_23_30: x[1,2,3,3] + x[1,3,0,4] <= 1
 move_1_3_23_31: x[1,2,3,3] + x[1,3,1,4] <= 1
 move_1_3_23_40: x[1,2,3,3] + x[1,4,0,4] <= 1
 move_1_3_23_41: x[1,2,3,3] + x[1,4,1,4] <= 1
 move_1_3_23_42: x[1,2,3,3] + x[1,4,2,4] <= 1
 move_1_3_23_44: x[1,2,3,3] + x[1,4,4,4] <= 1
 move_1_3_24_00: x[1,0,0,4] + x[1,2,4,3] <= 1
 move_1_3_24_01: x[1,0,1,4] + x[1,2,4,3] <= 1
 move_1_3_24_02: x[1,0,2,4] + x[1,2,4,3] <= 1
 move_1_3_24_03: x[1,0,3,4] + x[1,2,4,3] <= 1
 move_1_3_24_10: x[1,1,0,4] + x[1,2,4,3] <= 1
 move_1_3_24_11: x[1,1,1,4] + x[1,2,4,3] <= 1
 move_1_3_24_12: x[1,1,2,4] + x[1,2,4,3] <= 1
 move_1_3_24_20: x[1,2,0,4] + x[1,2,4,3] <= 1
 move_1_3_24_21: x[1,2,1,4] + x[1,2,4,3] <= 1
 move_1_3_24_30: x[1,2,4,3] + x[1,3,0,4] <= 1
 move_1_3_24_31: x[1,2,4,3] + x[1,3,1,4] <= 1
 move_1_3_24_32: x[1,2,4,3] + x[1,3,2,4] <= 1
 move_1_3_24_40: x[1,2,4,3] + x[1,4,0,4] <= 1
 move_1_3_24_41: x[1,2,4,3] + x[1,4,1,4] <= 1
 move_1_3_24_42: x[1,2,4,3] + x[1,4,2,4] <= 1
 move_1_3_24_43: x[1,2,4,3] + x[1,4,3,4] <= 1
 move_1_3_30_00: x[1,0,0,4] + x[1,3,0,3] <= 1
 move_1_3_30_01: x[1,0,1,4] + x[1,3,0,3] <= 1
 move_1_3_30_02: x[1,0,2,4] + x[1,3,0,3] <= 1
 move_1_3_30_03: x[1,0,3,4] + x[1,3,0,3] <= 1
 move_1_3_30_04: x[1,0,4,4] + x[1,3,0,3] <= 1
 move_1_3_30_11: x[1,1,1,4] + x[1,3,0,3] <= 1
 move_1_3_30_12: x[1,1,2,4] + x[1,3,0,3] <= 1
 move_1_3_30_13: x[1,1,3,4] + x[1,3,0,3] <= 1
 move_1_3_30_14: x[1,1,4,4] + x[1,3,0,3] <= 1
 move_1_3_30_22: x[1,2,2,4] + x[1,3,0,3] <= 1
 move_1_3_30_23: x[1,2,3,4] + x[1,3,0,3] <= 1
 move_1_3_30_24: x[1,2,4,4] + x[1,3,0,3] <= 1
 move_1_3_30_33: x[1,3,0,3] + x[1,3,3,4] <= 1
 move_1_3_30_34: x[1,3,0,3] + x[1,3,4,4] <= 1
 move_1_3_30_42: x[1,3,0,3] + x[1,4,2,4] <= 1
 move_1_3_30_43: x[1,3,0,3] + x[1,4,3,4] <= 1
 move_1_3_30_44: x[1,3,0,3] + x[1,4,4,4] <= 1
 move_1_3_31_00: x[1,0,0,4] + x[1,3,1,3] <= 1
 move_1_3_31_01: x[1,0,1,4] + x[1,3,1,3] <= 1
 move_1_3_31_02: x[1,0,2,4] + x[1,3,1,3] <= 1
 move_1_3_31_03: x[1,0,3,4] + x[1,3,1,3] <= 1
 move_1_3_31_04: x[1,0,4,4] + x[1,3,1,3] <= 1
 move_1_3_31_10: x[1,1,0,4] + x[1,3,1,3] <= 1
 move_1_3_31_12: x[1,1,2,4] + x[1,3,1,3] <= 1
 move_1_3_31_13: x[1,1,3,4] + x[1,3,1,3] <= 1
 move_1_3_31_14: x[1,1,4,4] + x[1,3,1,3] <= 1
 move_1_3_31_23: x[1,2,3,4] + x[1,3,1,3] <= 1
 move_1_3_31_24: x[1,2,4,4] + x[1,3,1,3] <= 1
 move_1_3_31_34: x[1,3,1,3] + x[1,3,4,4] <= 1
 move_1_3_31_43: x[1,3,1,3] + x[1,4,3,4] <= 1
 move_1_3_31_44: x[1,3,1,3] + x[1,4,4,4] <= 1
 move_1_3_32_00: x[1,0,0,4] + x[1,3,2,3] <= 1
 move_1_3_32_01: x[1,0,1,4] + x[1,3,2,3] <= 1
 move_1_3_32_02: x[1,0,2,4] + x[1,3,2,3] <= 1
 move_1_3_32_03: x[1,0,3,4] + x[1,3,2,3] <= 1
 move_1_3_32_04: x[1,0,4,4] + x[1,3,2,3] <= 1
 move_1_3_32_10: x[1,1,0,4] + x[1,3,2,3] <= 1
 move_1_3_32_11: x[1,1,1,4] + x[1,3,2,3] <= 1
 move_1_3_32_13: x[1,1,3,4] + x[1,3,2,3] <= 1
 move_1_3_32_14: x[1,1,4,4] + x[1,3,2,3] <= 1
 move_1_3_32_20: x[1,2,0,4] + x[1,3,2,3] <= 1
 move_1_3_32_24: x[1,2,4,4] + x[1,3,2,3] <= 1
 move_1_3_32_40: x[1,3,2,3] + x[1,4,0,4] <= 1
 move_1_3_32_44: x[1,3,2,3] + x[1,4,4,4] <= 1
 move_1_3_33_00: x[1,0,0,4] + x[1,3,3,3] <= 1
 move_1_3_33_01: x[1,0,1,4] + x[1,3,3,3] <= 1
 move_1_3_33_02: x[1,0,2,4] + x[1,3,3,3] <= 1
 move_1_3_33_03: x[1,0,3,4] + x[1,3,3,3] <= 1
 move_1_3_33_04: x[1,0,4,4] + x[1,3,3,3] <= 1
 move_1_3_33_10: x[1,1,0,4] + x[1,3,3,3] <= 1
 move_1_3_33_11: x[1,1,1,4] + x[1,3,3,3] <= 1
 move_1_3_33_12: x[1,1,2,4] + x[1,3,3,3] <= 1
 move_1_3_33_14: x[1,1,4,4] + x[1,3,3,3] <= 1
 move_1_3_33_20: x[1,2,0,4] + x[1,3,3,3] <= 1
 move_1_3_33_21: x[1,2,1,4] + x[1,3,3,3] <= 1
 move_1_3_33_30: x[1,3,0,4] + x[1,3,3,3] <= 1
 move_1_3_33_40: x[1,3,3,3] + x[1,4,0,4] <= 1
 move_1_3_33_41: x[1,3,3,3] + x[1,4,1,4] <= 1
 move_1_3_34_00: x[1,0,0,4] + x[1,3,4,3] <= 1
 move_1_3_34_01: x[1,0,1,4] + x[1,3,4,3] <= 1
 move_1_3_34_02: x[1,0,2,4] + x[1,3,4,3] <= 1
 move_1_3_34_03: x[1,0,3,4] + x[1,3,4,3] <= 1
 move_1_3_34_04: x[1,0,4,4] + x[1,3,4,3] <= 1
 move_1_3_34_10: x[1,1,0,4] + x[1,3,4,3] <= 1
 move_1_3_34_11: x[1,1,1,4] + x[1,3,4,3] <= 1
 move_1_3_34_12: x[1,1,2,4] + x[1,3,4,3] <= 1
 move_1_3_34_13: x[1,1,3,4] + x[1,3,4,3] <= 1
 move_1_3_34_20: x[1,2,0,4] + x[1,3,4,3] <= 1
 move_1_3_34_21: x[1,2,1,4] + x[1,3,4,3] <= 1
 move_1_3_34_22: x[1,2,2,4] + x[1,3,4,3] <= 1
 move_1_3_34_30: x[1,3,0,4] + x[1,3,4,3] <= 1
 move_1_3_34_31: x[1,3,1,4] + x[1,3,4,3] <= 1
 move_1_3_34_40: x[1,3,4,3] + x[1,4,0,4] <= 1
 move_1_3_34_41: x[1,3,4,3] + x[1,4,1,4] <= 1
 move_1_3_34_42: x[1,3,4,3] + x[1,4,2,4] <= 1
 move_1_3_40_00: x[1,0,0,4] + x[1,4,0,3] <= 1
 move_1_3_40_01: x[1,0,1,4] + x[1,4,0,3] <= 1
 move_1_3_40_02: x[1,0,2,4] + x[1,4,0,3] <= 1
 move_1_3_40_03: x[1,0,3,4] + x[1,4,0,3] <= 1
 move_1_3_40_04: x[1,0,4,4] + x[1,4,0,3] <= 1
 move_1_3_40_10: x[1,1,0,4] + x[1,4,0,3] <= 1
 move_1_3_40_11: x[1,1,1,4] + x[1,4,0,3] <= 1
 move_1_3_40_12: x[1,1,2,4] + x[1,4,0,3] <= 1
 move_1_3_40_13: x[1,1,3,4] + x[1,4,0,3] <= 1
 move_1_3_40_14: x[1,1,4,4] + x[1,4,0,3] <= 1
 move_1_3_40_21: x[1,2,1,4] + x[1,4,0,3] <= 1
 move_1_3_40_22: x[1,2,2,4] + x[1,4,0,3] <= 1
 move_1_3_40_23: x[1,2,3,4] + x[1,4,0,3] <= 1
 move_1_3_40_24: x[1,2,4,4] + x[1,4,0,3] <= 1
 move_1_3_40_32: x[1,3,2,4] + x[1,4,0,3] <= 1
 move_1_3_40_33: x[1,3,3,4] + x[1,4,0,3] <= 1
 move_1_3_40_34: x[1,3,4,4] + x[1,4,0,3] <= 1
 move_1_3_40_43: x[1,4,0,3] + x[1,4,3,4] <= 1
 move_1_3_40_44: x[1,4,0,3] + x[1,4,4,4] <= 1
 move_1_3_41_00: x[1,0,0,4] + x[1,4,1,3] <= 1
 move_1_3_41_01: x[1,0,1,4] + x[1,4,1,3] <= 1
 move_1_3_41_02: x[1,0,2,4] + x[1,4,1,3] <= 1
 move_1_3_41_03: x[1,0,3,4] + x[1,4,1,3] <= 1
 move_1_3_41_04: x[1,0,4,4] + x[1,4,1,3] <= 1
 move_1_3_41_10: x[1,1,0,4] + x[1,4,1,3] <= 1
 move_1_3_41_11: x[1,1,1,4] + x[1,4,1,3] <= 1
 move_1_3_41_12: x[1,1,2,4] + x[1,4,1,3] <= 1
 move_1_3_41_13: x[1,1,3,4] + x[1,4,1,3] <= 1
 move_1_3_41_14: x[1,1,4,4] + x[1,4,1,3] <= 1
 move_1_3_41_20: x[1,2,0,4] + x[1,4,1,3] <= 1
 move_1_3_41_22: x[1,2,2,4] + x[1,4,1,3] <= 1
 move_1_3_41_23: x[1,2,3,4] + x[1,4,1,3] <= 1
 move_1_3_41_24: x[1,2,4,4] + x[1,4,1,3] <= 1
 move_1_3_41_33: x[1,3,3,4] + x[1,4,1,3] <= 1
 move_1_3_41_34: x[1,3,4,4] + x[1,4,1,3] <= 1
 move_1_3_41_44: x[1,4,1,3] + x[1,4,4,4] <= 1
 move_1_3_42_00: x[1,0,0,4] + x[1,4,2,3] <= 1
 move_1_3_42_01: x[1,0,1,4] + x[1,4,2,3] <= 1
 move_1_3_42_02: x[1,0,2,4] + x[1,4,2,3] <= 1
 move_1_3_42_03: x[1,0,3,4] + x[1,4,2,3] <= 1
 move_1_3_42_04: x[1,0,4,4] + x[1,4,2,3] <= 1
 move_1_3_42_10: x[1,1,0,4] + x[1,4,2,3] <= 1
 move_1_3_42_11: x[1,1,1,4] + x[1,4,2,3] <= 1
 move_1_3_42_12: x[1,1,2,4] + x[1,4,2,3] <= 1
 move_1_3_42_13: x[1,1,3,4] + x[1,4,2,3] <= 1
 move_1_3_42_14: x[1,1,4,4] + x[1,4,2,3] <= 1
 move_1_3_42_20: x[1,2,0,4] + x[1,4,2,3] <= 1
 move_1_3_42_21: x[1,2,1,4] + x[1,4,2,3] <= 1
 move_1_3_42_23: x[1,2,3,4] + x[1,4,2,3] <= 1
 move_1_3_42_24: x[1,2,4,4] + x[1,4,2,3] <= 1
 move_1_3_42_30: x[1,3,0,4] + x[1,4,2,3] <= 1
 move_1_3_42_34: x[1,3,4,4] + x[1,4,2,3] <= 1
 move_1_3_43_00: x[1,0,0,4] + x[1,4,3,3] <= 1
 move_1_3_43_01: x[1,0,1,4] + x[1,4,3,3] <= 1
 move_1_3_43_02: x[1,0,2,4] + x[1,4,3,3] <= 1
 move_1_3_43_03: x[1,0,3,4] + x[1,4,3,3] <= 1
 move_1_3_43_04: x[1,0,4,4] + x[1,4,3,3] <= 1
 move_1_3_43_10: x[1,1,0,4] + x[1,4,3,3] <= 1
 move_1_3_43_11: x[1,1,1,4] + x[1,4,3,3] <= 1
 move_1_3_43_12: x[1,1,2,4] + x[1,4,3,3] <= 1
 move_1_3_43_13: x[1,1,3,4] + x[1,4,3,3] <= 1
 move_1_3_43_14: x[1,1,4,4] + x[1,4,3,3] <= 1
 move_1_3_43_20: x[1,2,0,4] + x[1,4,3,3] <= 1
 move_1_3_43_21: x[1,2,1,4] + x[1,4,3,3] <= 1
 move_1_3_43_22: x[1,2,2,4] + x[1,4,3,3] <= 1
 move_1_3_43_24: x[1,2,4,4] + x[1,4,3,3] <= 1
 move_1_3_43_30: x[1,3,0,4] + x[1,4,3,3] <= 1
 move_1_3_43_31: x[1,3,1,4] + x[1,4,3,3] <= 1
 move_1_3_43_40: x[1,4,0,4] + x[1,4,3,3] <= 1
 move_1_3_44_00: x[1,0,0,4] + x[1,4,4,3] <= 1
 move_1_3_44_01: x[1,0,1,4] + x[1,4,4,3] <= 1
 move_1_3_44_02: x[1,0,2,4] + x[1,4,4,3] <= 1
 move_1_3_44_03: x[1,0,3,4] + x[1,4,4,3] <= 1
 move_1_3_44_04: x[1,0,4,4] + x[1,4,4,3] <= 1
 move_1_3_44_10: x[1,1,0,4] + x[1,4,4,3] <= 1
 move_1_3_44_11: x[1,1,1,4] + x[1,4,4,3] <= 1
 move_1_3_44_12: x[1,1,2,4] + x[1,4,4,3] <= 1
 move_1_3_44_13: x[1,1,3,4] + x[1,4,4,3] <= 1
 move_1_3_44_14: x[1,1,4,4] + x[1,4,4,3] <= 1
 move_1_3_44_20: x[1,2,0,4] + x[1,4,4,3] <= 1
 move_1_3_44_21: x[1,2,1,4] + x[1,4,4,3] <= 1
 move_1_3_44_22: x[1,2,2,4] + x[1,4,4,3] <= 1
 move_1_3_44_23: x[1,2,3,4] + x[1,4,4,3] <= 1
 move_1_3_44_30: x[1,3,0,4] + x[1,4,4,3] <= 1
 move_1_3_44_31: x[1,3,1,4] + x[1,4,4,3] <= 1
 move_1_3_44_32: x[1,3,2,4] + x[1,4,4,3] <= 1
 move_1_3_44_40: x[1,4,0,4] + x[1,4,4,3] <= 1
 move_1_3_44_41: x[1,4,1,4] + x[1,4,4,3] <= 1
 move_1_4_00_03: x[1,0,0,4] + x[1,0,3,5] <= 1
 move_1_4_00_04: x[1,0,0,4] + x[1,0,4,5] <= 1
 move_1_4_00_12: x[1,0,0,4] + x[1,1,2,5] <= 1
 move_1_4_00_13: x[1,0,0,4] + x[1,1,3,5] <= 1
 move_1_4_00_14: x[1,0,0,4] + x[1,1,4,5] <= 1
 move_1_4_00_21: x[1,0,0,4] + x[1,2,1,5] <= 1
 move_1_4_00_22: x[1,0,0,4] + x[1,2,2,5] <= 1
 move_1_4_00_23: x[1,0,0,4] + x[1,2,3,5] <= 1
 move_1_4_00_24: x[1,0,0,4] + x[1,2,4,5] <= 1
 move_1_4_00_30: x[1,0,0,4] + x[1,3,0,5] <= 1
 move_1_4_00_31: x[1,0,0,4] + x[1,3,1,5] <= 1
 move_1_4_00_32: x[1,0,0,4] + x[1,3,2,5] <= 1
 move_1_4_00_33: x[1,0,0,4] + x[1,3,3,5] <= 1
 move_1_4_00_34: x[1,0,0,4] + x[1,3,4,5] <= 1
 move_1_4_00_40: x[1,0,0,4] + x[1,4,0,5] <= 1
 move_1_4_00_41: x[1,0,0,4] + x[1,4,1,5] <= 1
 move_1_4_00_42: x[1,0,0,4] + x[1,4,2,5] <= 1
 move_1_4_00_43: x[1,0,0,4] + x[1,4,3,5] <= 1
 move_1_4_00_44: x[1,0,0,4] + x[1,4,4,5] <= 1
 move_1_4_01_04: x[1,0,1,4] + x[1,0,4,5] <= 1
 move_1_4_01_13: x[1,0,1,4] + x[1,1,3,5] <= 1
 move_1_4_01_14: x[1,0,1,4] + x[1,1,4,5] <= 1
 move_1_4_01_20: x[1,0,1,4] + x[1,2,0,5] <= 1
 move_1_4_01_22: x[1,0,1,4] + x[1,2,2,5] <= 1
 move_1_4_01_23: x[1,0,1,4] + x[1,2,3,5] <= 1
 move_1_4_01_24: x[1,0,1,4] + x[1,2,4,5] <= 1
 move_1_4_01_30: x[1,0,1,4] + x[1,3,0,5] <= 1
 move_1_4_01_31: x[1,0,1,4] + x[1,3,1,5] <= 1
 move_1_4_01_32: x[1,0,1,4] + x[1,3,2,5] <= 1
 move_1_4_01_33: x[1,0,1,4] + x[1,3,3,5] <= 1
 move_1_4_01_34: x[1,0,1,4] + x[1,3,4,5] <= 1
 move_1_4_01_40: x[1,0,1,4] + x[1,4,0,5] <= 1
 move_1_4_01_41: x[1,0,1,4] + x[1,4,1,5] <= 1
 move_1_4_01_42: x[1,0,1,4] + x[1,4,2,5] <= 1
 move_1_4_01_43: x[1,0,1,4] + x[1,4,3,5] <= 1
 move_1_4_01_44: x[1,0,1,4] + x[1,4,4,5] <= 1
 move_1_4_02_10: x[1,0,2,4] + x[1,1,0,5] <= 1
 move_1_4_02_14: x[1,0,2,4] + x[1,1,4,5] <= 1
 move_1_4_02_20: x[1,0,2,4] + x[1,2,0,5] <= 1
 move_1_4_02_21: x[1,0,2,4] + x[1,2,1,5] <= 1
 move_1_4_02_23: x[1,0,2,4] + x[1,2,3,5] <= 1
 move_1_4_02_24: x[1,0,2,4] + x[1,2,4,5] <= 1
 move_1_4_02_30: x[1,0,2,4] + x[1,3,0,5] <= 1
 move_1_4_02_31: x[1,0,2,4] + x[1,3,1,5] <= 1
 move_1_4_02_32: x[1,0,2,4] + x[1,3,2,5] <= 1
 move_1_4_02_33: x[1,0,2,4] + x[1,3,3,5] <= 1
 move_1_4_02_34: x[1,0,2,4] + x[1,3,4,5] <= 1
 move_1_4_02_40: x[1,0,2,4] + x[1,4,0,5] <= 1
 move_1_4_02_41: x[1,0,2,4] + x[1,4,1,5] <= 1
 move_1_4_02_42: x[1,0,2,4] + x[1,4,2,5] <= 1
 move_1_4_02_43: x[1,0,2,4] + x[1,4,3,5] <= 1
 move_1_4_02_44: x[1,0,2,4] + x[1,4,4,5] <= 1
 move_1_4_03_00: x[1,0,0,5] + x[1,0,3,4] <= 1
 move_1_4_03_10: x[1,0,3,4] + x[1,1,0,5] <= 1
 move_1_4_03_11: x[1,0,3,4] + x[1,1,1,5] <= 1
 move_1_4_03_20: x[1,0,3,4] + x[1,2,0,5] <= 1
 move_1_4_03_21: x[1,0,3,4] + x[1,2,1,5] <= 1
 move_1_4_03_22: x[1,0,3,4] + x[1,2,2,5] <= 1
 move_1_4_03_24: x[1,0,3,4] + x[1,2,4,5] <= 1
 move_1_4_03_30: x[1,0,3,4] + x[1,3,0,5] <= 1
 move_1_4_03_31: x[1,0,3,4] + x[1,3,1,5] <= 1
 move_1_4_03_32: x[1,0,3,4] + x[1,3,2,5] <= 1
 move_1_4_03_33: x[1,0,3,4] + x[1,3,3,5] <= 1
 move_1_4_03_34: x[1,0,3,4] + x[1,3,4,5] <= 1
 move_1_4_03_40: x[1,0,3,4] + x[1,4,0,5] <= 1
 move_1_4_03_41: x[1,0,3,4] + x[1,4,1,5] <= 1
 move_1_4_03_42: x[1,0,3,4] + x[1,4,2,5] <= 1
 move_1_4_03_43: x[1,0,3,4] + x[1,4,3,5] <= 1
 move_1_4_03_44: x[1,0,3,4] + x[1,4,4,5] <= 1
 move_1_4_04_00: x[1,0,0,5] + x[1,0,4,4] <= 1
 move_1_4_04_01: x[1,0,1,5] + x[1,0,4,4] <= 1
 move_1_4_04_10: x[1,0,4,4] + x[1,1,0,5] <= 1
 move_1_4_04_11: x[1,0,4,4] + x[1,1,1,5] <= 1
 move_1_4_04_12: x[1,0,4,4] + x[1,1,2,5] <= 1
 move_1_4_04_20: x[1,0,4,4] + x[1,2,0,5] <= 1
 move_1_4_04_21: x[1,0,4,4] + x[1,2,1,5] <= 1
 move_1_4_04_22: x[1,0,4,4] + x[1,2,2,5] <= 1
 move_1_4_04_23: x[1,0,4,4] + x[1,2,3,5] <= 1
 move_1_4_04_30: x[1,0,4,4] + x[1,3,0,5] <= 1
 move_1_4_04_31: x[1,0,4,4] + x[1,3,1,5] <= 1
 move_1_4_04_32: x[1,0,4,4] + x[1,3,2,5] <= 1
 move_1_4_04_33: x[1,0,4,4] + x[1,3,3,5] <= 1
 move_1_4_04_34: x[1,0,4,4] + x[1,3,4,5] <= 1
 move_1_4_04_40: x[1,0,4,4] + x[1,4,0,5] <= 1
 move_1_4_04_41: x[1,0,4,4] + x[1,4,1,5] <= 1
 move_1_4_04_42: x[1,0,4,4] + x[1,4,2,5] <= 1
 move_1_4_04_43: x[1,0,4,4] + x[1,4,3,5] <= 1
 move_1_4_04_44: x[1,0,4,4] + x[1,4,4,5] <= 1
 move_1_4_10_02: x[1,0,2,5] + x[1,1,0,4] <= 1
 move_1_4_10_03: x[1,0,3,5] + x[1,1,0,4] <= 1
 move_1_4_10_04: x[1,0,4,5] + x[1,1,0,4] <= 1
 move_1_4_10_13: x[1,1,0,4] + x[1,1,3,5] <= 1
 move_1_4_10_14: x[1,1,0,4] + x[1,1,4,5] <= 1
 move_1_4_10_22: x[1,1,0,4] + x[1,2,2,5] <= 1
 move_1_4_10_23: x[1,1,0,4] + x[1,2,3,5] <= 1
 move_1_4_10_24: x[1,1,0,4] + x[1,2,4,5] <= 1
 move_1_4_10_31: x[1,1,0,4] + x[1,3,1,5] <= 1
 move_1_4_10_32: x[1,1,0,4] + x[1,3,2,5] <= 1
 move_1_4_10_33: x[1,1,0,4] + x[1,3,3,5] <= 1
 move_1_4_10_34: x[1,1,0,4] + x[1,3,4,5] <= 1
 move_1_4_10_40: x[1,1,0,4] + x[1,4,0,5] <= 1
 move_1_4_10_41: x[1,1,0,4] + x[1,4,1,5] <= 1
 move_1_4_10_42: x[1,1,0,4] + x[1,4,2,5] <= 1
 move_1_4_10_43: x[1,1,0,4] + x[1,4,3,5] <= 1
 move_1_4_10_44: x[1,1,0,4] + x[1,4,4,5] <= 1
 move_1_4_11_03: x[1,0,3,5] + x[1,1,1,4] <= 1
 move_1_4_11_04: x[1,0,4,5] + x[1,1,1,4] <= 1
 move_1_4_11_14: x[1,1,1,4] + x[1,1,4,5] <= 1
 move_1_4_11_23: x[1,1,1,4] + x[1,2,3,5] <= 1
 move_1_4_11_24: x[1,1,1,4] + x[1,2,4,5] <= 1
 move_1_4_11_30: x[1,1,1,4] + x[1,3,0,5] <= 1
 move_1_4_11_32: x[1,1,1,4] + x[1,3,2,5] <= 1
 move_1_4_11_33: x[1,1,1,4] + x[1,3,3,5] <= 1
 move_1_4_11_34: x[1,1,1,4] + x[1,3,4,5] <= 1
 move_1_4_11_40: x[1,1,1,4] + x[1,4,0,5] <= 1
 move_1_4_11_41: x[1,1,1,4] + x[1,4,1,5] <= 1
 move_1_4_11_42: x[1,1,1,4] + x[1,4,2,5] <= 1
 move_1_4_11_43: x[1,1,1,4] + x[1,4,3,5] <= 1
 move_1_4_11_44: x[1,1,1,4] + x[1,4,4,5] <= 1
 move_1_4_12_00: x[1,0,0,5] + x[1,1,2,4] <= 1
 move_1_4_12_04: x[1,0,4,5] + x[1,1,2,4] <= 1
 move_1_4_12_20: x[1,1,2,4] + x[1,2,0,5] <= 1
 move_1_4_12_24: x[1,1,2,4] + x[1,2,4,5] <= 1
 move_1_4_12_30: x[1,1,2,4] + x[1,3,0,5] <= 1
 move_1_4_12_31: x[1,1,2,4] + x[1,3,1,5] <= 1
 move_1_4_12_33: x[1,1,2,4] + x[1,3,3,5] <= 1
 move_1_4_12_34: x[1,1,2,4] + x[1,3,4,5] <= 1
 move_1_4_12_40: x[1,1,2,4] + x[1,4,0,5] <= 1
 move_1_4_12_41: x[1,1,2,4] + x[1,4,1,5] <= 1
 move_1_4_12_42: x[1,1,2,4] + x[1,4,2,5] <= 1
 move_1_4_12_43: x[1,1,2,4] + x[1,4,3,5] <= 1
 move_1_4_12_44: x[1,1,2,4] + x[1,4,4,5] <= 1
 move_1_4_13_00: x[1,0,0,5] + x[1,1,3,4] <= 1
 move_1_4_13_01: x[1,0,1,5] + x[1,1,3,4] <= 1
 move_1_4_13_10: x[1,1,0,5] + x[1,1,3,4] <= 1
 move_1_4_13_20: x[1,1,3,4] + x[1,2,0,5] <= 1
 move_1_4_13_21: x[1,1,3,4] + x[1,2,1,5] <= 1
 move_1_4_13_30: x[1,1,3,4] + x[1,3,0,5] <= 1
 move_1_4_13_31: x[1,1,3,4] + x[1,3,1,5] <= 1
 move_1_4_13_32: x[1,1,3,4] + x[1,3,2,5] <= 1
 move_1_4_13_34: x[1,1,3,4] + x[1,3,4,5] <= 1
 move_1_4_13_40: x[1,1,3,4] + x[1,4,0,5] <= 1
 move_1_4_13_41: x[1,1,3,4] + x[1,4,1,5] <= 1
 move_1_4_13_42: x[1,1,3,4] + x[1,4,2,5] <= 1
 move_1_4_13_43: x[1,1,3,4] + x[1,4,3,5] <= 1
 move_1_4_13_44: x[1,1,3,4] + x[1,4,4,5] <= 1
 move_1_4_14_00: x[1,0,0,5] + x[1,1,4,4] <= 1
 move_1_4_14_01: x[1,0,1,5] + x[1,1,4,4] <= 1
 move_1_4_14_02: x[1,0,2,5] + x[1,1,4,4] <= 1
 move_1_4_14_10: x[1,1,0,5] + x[1,1,4,4] <= 1
 move_1_4_14_11: x[1,1,1,5] + x[1,1,4,4] <= 1
 move_1_4_14_20: x[1,1,4,4] + x[1,2,0,5] <= 1
 move_1_4_14_21: x[1,1,4,4] + x[1,2,1,5] <= 1
 move_1_4_14_22: x[1,1,4,4] + x[1,2,2,5] <= 1
 move_1_4_14_30: x[1,1,4,4] + x[1,3,0,5] <= 1
 move_1_4_14_31: x[1,1,4,4] + x[1,3,1,5] <= 1
 move_1_4_14_32: x[1,1,4,4] + x[1,3,2,5] <= 1
 move_1_4_14_33: x[1,1,4,4] + x[1,3,3,5] <= 1
 move_1_4_14_40: x[1,1,4,4] + x[1,4,0,5] <= 1
 move_1_4_14_41: x[1,1,4,4] + x[1,4,1,5] <= 1
 move_1_4_14_42: x[1,1,4,4] + x[1,4,2,5] <= 1
 move_1_4_14_43: x[1,1,4,4] + x[1,4,3,5] <= 1
 move_1_4_14_44: x[1,1,4,4] + x[1,4,4,5] <= 1
 move_1_4_20_01: x[1,0,1,5] + x[1,2,0,4] <= 1
 move_1_4_20_02: x[1,0,2,5] + x[1,2,0,4] <= 1
 move_1_4_20_03: x[1,0,3,5] + x[1,2,0,4] <= 1
 move_1_4_20_04: x[1,0,4,5] + x[1,2,0,4] <= 1
 move_1_4_20_12: x[1,1,2,5] + x[1,2,0,4] <= 1
 move_1_4_20_13: x[1,1,3,5] + x[1,2,0,4] <= 1
 move_1_4_20_14: x[1,1,4,5] + x[1,2,0,4] <= 1
 move_1_4_20_23: x[1,2,0,4] + x[1,2,3,5] <= 1
 move_1_4_20_24: x[1,2,0,4] + x[1,2,4,5] <= 1
 move_1_4_20_32: x[1,2,0,4] + x[1,3,2,5] <= 1
 move_1_4_20_33: x[1,2,0,4] + x[1,3,3,5] <= 1
 move_1_4_20_34: x[1,2,0,4] + x[1,3,4,5] <= 1
 move_1_4_20_41: x[1,2,0,4] + x[1,4,1,5] <= 1
 move_1_4_20_42: x[1,2,0,4] + x[1,4,2,5] <= 1
 move_1_4_20_43: x[1,2,0,4] + x[1,4,3,5] <= 1
 move_1_4_20_44: x[1,2,0,4] + x[1,4,4,5] <= 1
 move_1_4_21_00: x[1,0,0,5] + x[1,2,1,4] <= 1
 move_1_4_21_02: x[1,0,2,5] + x[1,2,1,4] <= 1
 move_1_4_21_03: x[1,0,3,5] + x[1,2,1,4] <= 1
 move_1_4_21_04: x[1,0,4,5] + x[1,2,1,4] <= 1
 move_1_4_21_13: x[1,1,3,5] + x[1,2,1,4] <= 1
 move_1_4_21_14: x[1,1,4,5] + x[1,2,1,4] <= 1
 move_1_4_21_24: x[1,2,1,4] + x[1,2,4,5] <= 1
 move_1_4_21_33: x[1,2,1,4] + x[1,3,3,5] <= 1
 move_1_4_21_34: x[1,2,1,4] + x[1,3,4,5] <= 1
 move_1_4_21_40: x[1,2,1,4] + x[1,4,0,5] <= 1
 move_1_4_21_42: x[1,2,1,4] + x[1,4,2,5] <= 1
 move_1_4_21_43: x[1,2,1,4] + x[1,4,3,5] <= 1
 move_1_4_21_44: x[1,2,1,4] + x[1,4,4,5] <= 1
 move_1_4_22_00: x[1,0,0,5] + x[1,2,2,4] <= 1
 move_1_4_22_01: x[1,0,1,5] + x[1,2,2,4] <= 1
 move_1_4_22_03: x[1,0,3,5] + x[1,2,2,4] <= 1
 move_1_4_22_04: x[1,0,4,5] + x[1,2,2,4] <= 1
 move_1_4_22_10: x[1,1,0,5] + x[1,2,2,4] <= 1
 move_1_4_22_14: x[1,1,4,5] + x[1,2,2,4] <= 1
 move_1_4_22_30: x[1,2,2,4] + x[1,3,0,5] <= 1
 move_1_4_22_34: x[1,2,2,4] + x[1,3,4,5] <= 1
 move_1_4_22_40: x[1,2,2,4] + x[1,4,0,5] <= 1
 move_1_4_22_41: x[1,2,2,4] + x[1,4,1,5] <= 1
 move_1_4_22_43: x[1,2,2,4] + x[1,4,3,5] <= 1
 move_1_4_22_44: x[1,2,2,4] + x[1,4,4,5] <= 1
 move_1_4_23_00: x[1,0,0,5] + x[1,2,3,4] <= 1
 move_1_4_23_01: x[1,0,1,5] + x[1,2,3,4] <= 1
 move_1_4_23_02: x[1,0,2,5] + x[1,2,3,4] <= 1
 move_1_4_23_04: x[1,0,4,5] + x[1,2,3,4] <= 1
 move_1_4_23_10: x[1,1,0,5] + x[1,2,3,4] <= 1
 move_1_4_23_11: x[1,1,1,5] + x[1,2,3,4] <= 1
 move_1_4_23_20: x[1,2,0,5] + x[1,2,3,4] <= 1
 move_1_4_23_30: x[1,2,3,4] + x[1,3,0,5] <= 1
 move_1_4_23_31: x[1,2,3,4] + x[1,3,1,5] <= 1
 move_1_4_23_40: x[1,2,3,4] + x[1,4,0,5] <= 1
 move_1_4_23_41: x[1,2,3,4] + x[1,4,1,5] <= 1
 move_1_4_23_42: x[1,2,3,4] + x[1,4,2,5] <= 1
 move_1_4_23_44: x[1,2,3,4] + x[1,4,4,5] <= 1
 move_1_4_24_00: x[1,0,0,5] + x[1,2,4,4] <= 1
 move_1_4_24_01: x[1,0,1,5] + x[1,2,4,4] <= 1
 move_1_4_24_02: x[1,0,2,5] + x[1,2,4,4] <= 1
 move_1_4_24_03: x[1,0,3,5] + x[1,2,4,4] <= 1
 move_1_4_24_10: x[1,1,0,5] + x[1,2,4,4] <= 1
 move_1_4_24_11: x[1,1,1,5] + x[1,2,4,4] <= 1
 move_1_4_24_12: x[1,1,2,5] + x[1,2,4,4] <= 1
 move_1_4_24_20: x[1,2,0,5] + x[1,2,4,4] <= 1
 move_1_4_24_21: x[1,2,1,5] + x[1,2,4,4] <= 1
 move_1_4_24_30: x[1,2,4,4] + x[1,3,0,5] <= 1
 move_1_4_24_31: x[1,2,4,4] + x[1,3,1,5] <= 1
 move_1_4_24_32: x[1,2,4,4] + x[1,3,2,5] <= 1
 move_1_4_24_40: x[1,2,4,4] + x[1,4,0,5] <= 1
 move_1_4_24_41: x[1,2,4,4] + x[1,4,1,5] <= 1
 move_1_4_24_42: x[1,2,4,4] + x[1,4,2,5] <= 1
 move_1_4_24_43: x[1,2,4,4] + x[1,4,3,5] <= 1
 move_1_4_30_00: x[1,0,0,5] + x[1,3,0,4] <= 1
 move_1_4_30_01: x[1,0,1,5] + x[1,3,0,4] <= 1
 move_1_4_30_02: x[1,0,2,5] + x[1,3,0,4] <= 1
 move_1_4_30_03: x[1,0,3,5] + x[1,3,0,4] <= 1
 move_1_4_30_04: x[1,0,4,5] + x[1,3,0,4] <= 1
 move_1_4_30_11: x[1,1,1,5] + x[1,3,0,4] <= 1
 move_1_4_30_12: x[1,1,2,5] + x[1,3,0,4] <= 1
 move_1_4_30_13: x[1,1,3,5] + x[1,3,0,4] <= 1
 move_1_4_30_14: x[1,1,4,5] + x[1,3,0,4] <= 1
 move_1_4_30_22: x[1,2,2,5] + x[1,3,0,4] <= 1
 move_1_4_30_23: x[1,2,3,5] + x[1,3,0,4] <= 1
 move_1_4_30_24: x[1,2,4,5] + x[1,3,0,4] <= 1
 move_1_4_30_33: x[1,3,0,4] + x[1,3,3,5] <= 1
 move_1_4_30_34: x[1,3,0,4] + x[1,3,4,5] <= 1
 move_1_4_30_42: x[1,3,0,4] + x[1,4,2,5] <= 1
 move_1_4_30_43: x[1,3,0,4] + x[1,4,3,5] <= 1
 move_1_4_30_44: x[1,3,0,4] + x[1,4,4,5] <= 1
 move_1_4_31_00: x[1,0,0,5] + x[1,3,1,4] <= 1
 move_1_4_31_01: x[1,0,1,5] + x[1,3,1,4] <= 1
 move_1_4_31_02: x[1,0,2,5] + x[1,3,1,4] <= 1
 move_1_4_31_03: x[1,0,3,5] + x[1,3,1,4] <= 1
 move_1_4_31_04: x[1,0,4,5] + x[1,3,1,4] <= 1
 move_1_4_31_10: x[1,1,0,5] + x[1,3,1,4] <= 1
 move_1_4_31_12: x[1,1,2,5] + x[1,3,1,4] <= 1
 move_1_4_31_13: x[1,1,3,5] + x[1,3,1,4] <= 1
 move_1_4_31_14: x[1,1,4,5] + x[1,3,1,4] <= 1
 move_1_4_31_23: x[1,2,3,5] + x[1,3,1,4] <= 1
 move_1_4_31_24: x[1,2,4,5] + x[1,3,1,4] <= 1
 move_1_4_31_34: x[1,3,1,4] + x[1,3,4,5] <= 1
 move_1_4_31_43: x[1,3,1,4] + x[1,4,3,5] <= 1
 move_1_4_31_44: x[1,3,1,4] + x[1,4,4,5] <= 1
 move_1_4_32_00: x[1,0,0,5] + x[1,3,2,4] <= 1
 move_1_4_32_01: x[1,0,1,5] + x[1,3,2,4] <= 1
 move_1_4_32_02: x[1,0,2,5] + x[1,3,2,4] <= 1
 move_1_4_32_03: x[1,0,3,5] + x[1,3,2,4] <= 1
 move_1_4_32_04: x[1,0,4,5] + x[1,3,2,4] <= 1
 move_1_4_32_10: x[1,1,0,5] + x[1,3,2,4] <= 1
 move_1_4_32_11: x[1,1,1,5] + x[1,3,2,4] <= 1
 move_1_4_32_13: x[1,1,3,5] + x[1,3,2,4] <= 1
 move_1_4_32_14: x[1,1,4,5] + x[1,3,2,4] <= 1
 move_1_4_32_20: x[1,2,0,5] + x[1,3,2,4] <= 1
 move_1_4_32_24: x[1,2,4,5] + x[1,3,2,4] <= 1
 move_1_4_32_40: x[1,3,2,4] + x[1,4,0,5] <= 1
 move_1_4_32_44: x[1,3,2,4] + x[1,4,4,5] <= 1
 move_1_4_33_00: x[1,0,0,5] + x[1,3,3,4] <= 1
 move_1_4_33_01: x[1,0,1,5] + x[1,3,3,4] <= 1
 move_1_4_33_02: x[1,0,2,5] + x[1,3,3,4] <= 1
 move_1_4_33_03: x[1,0,3,5] + x[1,3,3,4] <= 1
 move_1_4_33_04: x[1,0,4,5] + x[1,3,3,4] <= 1
 move_1_4_33_10: x[1,1,0,5] + x[1,3,3,4] <= 1
 move_1_4_33_11: x[1,1,1,5] + x[1,3,3,4] <= 1
 move_1_4_33_12: x[1,1,2,5] + x[1,3,3,4] <= 1
 move_1_4_33_14: x[1,1,4,5] + x[1,3,3,4] <= 1
 move_1_4_33_20: x[1,2,0,5] + x[1,3,3,4] <= 1
 move_1_4_33_21: x[1,2,1,5] + x[1,3,3,4] <= 1
 move_1_4_33_30: x[1,3,0,5] + x[1,3,3,4] <= 1
 move_1_4_33_40: x[1,3,3,4] + x[1,4,0,5] <= 1
 move_1_4_33_41: x[1,3,3,4] + x[1,4,1,5] <= 1
 move_1_4_34_00: x[1,0,0,5] + x[1,3,4,4] <= 1
 move_1_4_34_01: x[1,0,1,5] + x[1,3,4,4] <= 1
 move_1_4_34_02: x[1,0,2,5] + x[1,3,4,4] <= 1
 move_1_4_34_03: x[1,0,3,5] + x[1,3,4,4] <= 1
 move_1_4_34_04: x[1,0,4,5] + x[1,3,4,4] <= 1
 move_1_4_34_10: x[1,1,0,5] + x[1,3,4,4] <= 1
 move_1_4_34_11: x[1,1,1,5] + x[1,3,4,4] <= 1
 move_1_4_34_12: x[1,1,2,5] + x[1,3,4,4] <= 1
 move_1_4_34_13: x[1,1,3,5] + x[1,3,4,4] <= 1
 move_1_4_34_20: x[1,2,0,5] + x[1,3,4,4] <= 1
 move_1_4_34_21: x[1,2,1,5] + x[1,3,4,4] <= 1
 move_1_4_34_22: x[1,2,2,5] + x[1,3,4,4] <= 1
 move_1_4_34_30: x[1,3,0,5] + x[1,3,4,4] <= 1
 move_1_4_34_31: x[1,3,1,5] + x[1,3,4,4] <= 1
 move_1_4_34_40: x[1,3,4,4] + x[1,4,0,5] <= 1
 move_1_4_34_41: x[1,3,4,4] + x[1,4,1,5] <= 1
 move_1_4_34_42: x[1,3,4,4] + x[1,4,2,5] <= 1
 move_1_4_40_00: x[1,0,0,5] + x[1,4,0,4] <= 1
 move_1_4_40_01: x[1,0,1,5] + x[1,4,0,4] <= 1
 move_1_4_40_02: x[1,0,2,5] + x[1,4,0,4] <= 1
 move_1_4_40_03: x[1,0,3,5] + x[1,4,0,4] <= 1
 move_1_4_40_04: x[1,0,4,5] + x[1,4,0,4] <= 1
 move_1_4_40_10: x[1,1,0,5] + x[1,4,0,4] <= 1
 move_1_4_40_11: x[1,1,1,5] + x[1,4,0,4] <= 1
 move_1_4_40_12: x[1,1,2,5] + x[1,4,0,4] <= 1
 move_1_4_40_13: x[1,1,3,5] + x[1,4,0,4] <= 1
 move_1_4_40_14: x[1,1,4,5] + x[1,4,0,4] <= 1
 move_1_4_40_21: x[1,2,1,5] + x[1,4,0,4] <= 1
 move_1_4_40_22: x[1,2,2,5] + x[1,4,0,4] <= 1
 move_1_4_40_23: x[1,2,3,5] + x[1,4,0,4] <= 1
 move_1_4_40_24: x[1,2,4,5] + x[1,4,0,4] <= 1
 move_1_4_40_32: x[1,3,2,5] + x[1,4,0,4] <= 1
 move_1_4_40_33: x[1,3,3,5] + x[1,4,0,4] <= 1
 move_1_4_40_34: x[1,3,4,5] + x[1,4,0,4] <= 1
 move_1_4_40_43: x[1,4,0,4] + x[1,4,3,5] <= 1
 move_1_4_40_44: x[1,4,0,4] + x[1,4,4,5] <= 1
 move_1_4_41_00: x[1,0,0,5] + x[1,4,1,4] <= 1
 move_1_4_41_01: x[1,0,1,5] + x[1,4,1,4] <= 1
 move_1_4_41_02: x[1,0,2,5] + x[1,4,1,4] <= 1
 move_1_4_41_03: x[1,0,3,5] + x[1,4,1,4] <= 1
 move_1_4_41_04: x[1,0,4,5] + x[1,4,1,4] <= 1
 move_1_4_41_10: x[1,1,0,5] + x[1,4,1,4] <= 1
 move_1_4_41_11: x[1,1,1,5] + x[1,4,1,4] <= 1
 move_1_4_41_12: x[1,1,2,5] + x[1,4,1,4] <= 1
 move_1_4_41_13: x[1,1,3,5] + x[1,4,1,4] <= 1
 move_1_4_41_14: x[1,1,4,5] + x[1,4,1,4] <= 1
 move_1_4_41_20: x[1,2,0,5] + x[1,4,1,4] <= 1
 move_1_4_41_22: x[1,2,2,5] + x[1,4,1,4] <= 1
 move_1_4_41_23: x[1,2,3,5] + x[1,4,1,4] <= 1
 move_1_4_41_24: x[1,2,4,5] + x[1,4,1,4] <= 1
 move_1_4_41_33: x[1,3,3,5] + x[1,4,1,4] <= 1
 move_1_4_41_34: x[1,3,4,5] + x[1,4,1,4] <= 1
 move_1_4_41_44: x[1,4,1,4] + x[1,4,4,5] <= 1
 move_1_4_42_00: x[1,0,0,5] + x[1,4,2,4] <= 1
 move_1_4_42_01: x[1,0,1,5] + x[1,4,2,4] <= 1
 move_1_4_42_02: x[1,0,2,5] + x[1,4,2,4] <= 1
 move_1_4_42_03: x[1,0,3,5] + x[1,4,2,4] <= 1
 move_1_4_42_04: x[1,0,4,5] + x[1,4,2,4] <= 1
 move_1_4_42_10: x[1,1,0,5] + x[1,4,2,4] <= 1
 move_1_4_42_11: x[1,1,1,5] + x[1,4,2,4] <= 1
 move_1_4_42_12: x[1,1,2,5] + x[1,4,2,4] <= 1
 move_1_4_42_13: x[1,1,3,5] + x[1,4,2,4] <= 1
 move_1_4_42_14: x[1,1,4,5] + x[1,4,2,4] <= 1
 move_1_4_42_20: x[1,2,0,5] + x[1,4,2,4] <= 1
 move_1_4_42_21: x[1,2,1,5] + x[1,4,2,4] <= 1
 move_1_4_42_23: x[1,2,3,5] + x[1,4,2,4] <= 1
 move_1_4_42_24: x[1,2,4,5] + x[1,4,2,4] <= 1
 move_1_4_42_30: x[1,3,0,5] + x[1,4,2,4] <= 1
 move_1_4_42_34: x[1,3,4,5] + x[1,4,2,4] <= 1
 move_1_4_43_00: x[1,0,0,5] + x[1,4,3,4] <= 1
 move_1_4_43_01: x[1,0,1,5] + x[1,4,3,4] <= 1
 move_1_4_43_02: x[1,0,2,5] + x[1,4,3,4] <= 1
 move_1_4_43_03: x[1,0,3,5] + x[1,4,3,4] <= 1
 move_1_4_43_04: x[1,0,4,5] + x[1,4,3,4] <= 1
 move_1_4_43_10: x[1,1,0,5] + x[1,4,3,4] <= 1
 move_1_4_43_11: x[1,1,1,5] + x[1,4,3,4] <= 1
 move_1_4_43_12: x[1,1,2,5] + x[1,4,3,4] <= 1
 move_1_4_43_13: x[1,1,3,5] + x[1,4,3,4] <= 1
 move_1_4_43_14: x[1,1,4,5] + x[1,4,3,4] <= 1
 move_1_4_43_20: x[1,2,0,5] + x[1,4,3,4] <= 1
 move_1_4_43_21: x[1,2,1,5] + x[1,4,3,4] <= 1
 move_1_4_43_22: x[1,2,2,5] + x[1,4,3,4] <= 1
 move_1_4_43_24: x[1,2,4,5] + x[1,4,3,4] <= 1
 move_1_4_43_30: x[1,3,0,5] + x[1,4,3,4] <= 1
 move_1_4_43_31: x[1,3,1,5] + x[1,4,3,4] <= 1
 move_1_4_43_40: x[1,4,0,5] + x[1,4,3,4] <= 1
 move_1_4_44_00: x[1,0,0,5] + x[1,4,4,4] <= 1
 move_1_4_44_01: x[1,0,1,5] + x[1,4,4,4] <= 1
 move_1_4_44_02: x[1,0,2,5] + x[1,4,4,4] <= 1
 move_1_4_44_03: x[1,0,3,5] + x[1,4,4,4] <= 1
 move_1_4_44_04: x[1,0,4,5] + x[1,4,4,4] <= 1
 move_1_4_44_10: x[1,1,0,5] + x[1,4,4,4] <= 1
 move_1_4_44_11: x[1,1,1,5] + x[1,4,4,4] <= 1
 move_1_4_44_12: x[1,1,2,5] + x[1,4,4,4] <= 1
 move_1_4_44_13: x[1,1,3,5] + x[1,4,4,4] <= 1
 move_1_4_44_14: x[1,1,4,5] + x[1,4,4,4] <= 1
 move_1_4_44_20: x[1,2,0,5] + x[1,4,4,4] <= 1
 move_1_4_44_21: x[1,2,1,5] + x[1,4,4,4] <= 1
 move_1_4_44_22: x[1,2,2,5] + x[1,4,4,4] <= 1
 move_1_4_44_23: x[1,2,3,5] + x[1,4,4,4] <= 1
 move_1_4_44_30: x[1,3,0,5] + x[1,4,4,4] <= 1
 move_1_4_44_31: x[1,3,1,5] + x[1,4,4,4] <= 1
 move_1_4_44_32: x[1,3,2,5] + x[1,4,4,4] <= 1
 move_1_4_44_40: x[1,4,0,5] + x[1,4,4,4] <= 1
 move_1_4_44_41: x[1,4,1,5] + x[1,4,4,4] <= 1
 move_1_5_00_03: x[1,0,0,5] + x[1,0,3,6] <= 1
 move_1_5_00_04: x[1,0,0,5] + x[1,0,4,6] <= 1
 move_1_5_00_12: x[1,0,0,5] + x[1,1,2,6] <= 1
 move_1_5_00_13: x[1,0,0,5] + x[1,1,3,6] <= 1
 move_1_5_00_14: x[1,0,0,5] + x[1,1,4,6] <= 1
 move_1_5_00_21: x[1,0,0,5] + x[1,2,1,6] <= 1
 move_1_5_00_22: x[1,0,0,5] + x[1,2,2,6] <= 1
 move_1_5_00_23: x[1,0,0,5] + x[1,2,3,6] <= 1
 move_1_5_00_24: x[1,0,0,5] + x[1,2,4,6] <= 1
 move_1_5_00_30: x[1,0,0,5] + x[1,3,0,6] <= 1
 move_1_5_00_31: x[1,0,0,5] + x[1,3,1,6] <= 1
 move_1_5_00_32: x[1,0,0,5] + x[1,3,2,6] <= 1
 move_1_5_00_33: x[1,0,0,5] + x[1,3,3,6] <= 1
 move_1_5_00_34: x[1,0,0,5] + x[1,3,4,6] <= 1
 move_1_5_00_40: x[1,0,0,5] + x[1,4,0,6] <= 1
 move_1_5_00_41: x[1,0,0,5] + x[1,4,1,6] <= 1
 move_1_5_00_42: x[1,0,0,5] + x[1,4,2,6] <= 1
 move_1_5_00_43: x[1,0,0,5] + x[1,4,3,6] <= 1
 move_1_5_00_44: x[1,0,0,5] + x[1,4,4,6] <= 1
 move_1_5_01_04: x[1,0,1,5] + x[1,0,4,6] <= 1
 move_1_5_01_13: x[1,0,1,5] + x[1,1,3,6] <= 1
 move_1_5_01_14: x[1,0,1,5] + x[1,1,4,6] <= 1
 move_1_5_01_20: x[1,0,1,5] + x[1,2,0,6] <= 1
 move_1_5_01_22: x[1,0,1,5] + x[1,2,2,6] <= 1
 move_1_5_01_23: x[1,0,1,5] + x[1,2,3,6] <= 1
 move_1_5_01_24: x[1,0,1,5] + x[1,2,4,6] <= 1
 move_1_5_01_30: x[1,0,1,5] + x[1,3,0,6] <= 1
 move_1_5_01_31: x[1,0,1,5] + x[1,3,1,6] <= 1
 move_1_5_01_32: x[1,0,1,5] + x[1,3,2,6] <= 1
 move_1_5_01_33: x[1,0,1,5] + x[1,3,3,6] <= 1
 move_1_5_01_34: x[1,0,1,5] + x[1,3,4,6] <= 1
 move_1_5_01_40: x[1,0,1,5] + x[1,4,0,6] <= 1
 move_1_5_01_41: x[1,0,1,5] + x[1,4,1,6] <= 1
 move_1_5_01_42: x[1,0,1,5] + x[1,4,2,6] <= 1
 move_1_5_01_43: x[1,0,1,5] + x[1,4,3,6] <= 1
 move_1_5_01_44: x[1,0,1,5] + x[1,4,4,6] <= 1
 move_1_5_02_10: x[1,0,2,5] + x[1,1,0,6] <= 1
 move_1_5_02_14: x[1,0,2,5] + x[1,1,4,6] <= 1
 move_1_5_02_20: x[1,0,2,5] + x[1,2,0,6] <= 1
 move_1_5_02_21: x[1,0,2,5] + x[1,2,1,6] <= 1
 move_1_5_02_23: x[1,0,2,5] + x[1,2,3,6] <= 1
 move_1_5_02_24: x[1,0,2,5] + x[1,2,4,6] <= 1
 move_1_5_02_30: x[1,0,2,5] + x[1,3,0,6] <= 1
 move_1_5_02_31: x[1,0,2,5] + x[1,3,1,6] <= 1
 move_1_5_02_32: x[1,0,2,5] + x[1,3,2,6] <= 1
 move_1_5_02_33: x[1,0,2,5] + x[1,3,3,6] <= 1
 move_1_5_02_34: x[1,0,2,5] + x[1,3,4,6] <= 1
 move_1_5_02_40: x[1,0,2,5] + x[1,4,0,6] <= 1
 move_1_5_02_41: x[1,0,2,5] + x[1,4,1,6] <= 1
 move_1_5_02_42: x[1,0,2,5] + x[1,4,2,6] <= 1
 move_1_5_02_43: x[1,0,2,5] + x[1,4,3,6] <= 1
 move_1_5_02_44: x[1,0,2,5] + x[1,4,4,6] <= 1
 move_1_5_03_00: x[1,0,0,6] + x[1,0,3,5] <= 1
 move_1_5_03_10: x[1,0,3,5] + x[1,1,0,6] <= 1
 move_1_5_03_11: x[1,0,3,5] + x[1,1,1,6] <= 1
 move_1_5_03_20: x[1,0,3,5] + x[1,2,0,6] <= 1
 move_1_5_03_21: x[1,0,3,5] + x[1,2,1,6] <= 1
 move_1_5_03_22: x[1,0,3,5] + x[1,2,2,6] <= 1
 move_1_5_03_24: x[1,0,3,5] + x[1,2,4,6] <= 1
 move_1_5_03_30: x[1,0,3,5] + x[1,3,0,6] <= 1
 move_1_5_03_31: x[1,0,3,5] + x[1,3,1,6] <= 1
 move_1_5_03_32: x[1,0,3,5] + x[1,3,2,6] <= 1
 move_1_5_03_33: x[1,0,3,5] + x[1,3,3,6] <= 1
 move_1_5_03_34: x[1,0,3,5] + x[1,3,4,6] <= 1
 move_1_5_03_40: x[1,0,3,5] + x[1,4,0,6] <= 1
 move_1_5_03_41: x[1,0,3,5] + x[1,4,1,6] <= 1
 move_1_5_03_42: x[1,0,3,5] + x[1,4,2,6] <= 1
 move_1_5_03_43: x[1,0,3,5] + x[1,4,3,6] <= 1
 move_1_5_03_44: x[1,0,3,5] + x[1,4,4,6] <= 1
 move_1_5_04_00: x[1,0,0,6] + x[1,0,4,5] <= 1
 move_1_5_04_01: x[1,0,1,6] + x[1,0,4,5] <= 1
 move_1_5_04_10: x[1,0,4,5] + x[1,1,0,6] <= 1
 move_1_5_04_11: x[1,0,4,5] + x[1,1,1,6] <= 1
 move_1_5_04_12: x[1,0,4,5] + x[1,1,2,6] <= 1
 move_1_5_04_20: x[1,0,4,5] + x[1,2,0,6] <= 1
 move_1_5_04_21: x[1,0,4,5] + x[1,2,1,6] <= 1
 move_1_5_04_22: x[1,0,4,5] + x[1,2,2,6] <= 1
 move_1_5_04_23: x[1,0,4,5] + x[1,2,3,6] <= 1
 move_1_5_04_30: x[1,0,4,5] + x[1,3,0,6] <= 1
 move_1_5_04_31: x[1,0,4,5] + x[1,3,1,6] <= 1
 move_1_5_04_32: x[1,0,4,5] + x[1,3,2,6] <= 1
 move_1_5_04_33: x[1,0,4,5] + x[1,3,3,6] <= 1
 move_1_5_04_34: x[1,0,4,5] + x[1,3,4,6] <= 1
 move_1_5_04_40: x[1,0,4,5] + x[1,4,0,6] <= 1
 move_1_5_04_41: x[1,0,4,5] + x[1,4,1,6] <= 1
 move_1_5_04_42: x[1,0,4,5] + x[1,4,2,6] <= 1
 move_1_5_04_43: x[1,0,4,5] + x[1,4,3,6] <= 1
 move_1_5_04_44: x[1,0,4,5] + x[1,4,4,6] <= 1
 move_1_5_10_02: x[1,0,2,6] + x[1,1,0,5] <= 1
 move_1_5_10_03: x[1,0,3,6] + x[1,1,0,5] <= 1
 move_1_5_10_04: x[1,0,4,6] + x[1,1,0,5] <= 1
 move_1_5_10_13: x[1,1,0,5] + x[1,1,3,6] <= 1
 move_1_5_10_14: x[1,1,0,5] + x[1,1,4,6] <= 1
 move_1_5_10_22: x[1,1,0,5] + x[1,2,2,6] <= 1
 move_1_5_10_23: x[1,1,0,5] + x[1,2,3,6] <= 1
 move_1_5_10_24: x[1,1,0,5] + x[1,2,4,6] <= 1
 move_1_5_10_31: x[1,1,0,5] + x[1,3,1,6] <= 1
 move_1_5_10_32: x[1,1,0,5] + x[1,3,2,6] <= 1
 move_1_5_10_33: x[1,1,0,5] + x[1,3,3,6] <= 1
 move_1_5_10_34: x[1,1,0,5] + x[1,3,4,6] <= 1
 move_1_5_10_40: x[1,1,0,5] + x[1,4,0,6] <= 1
 move_1_5_10_41: x[1,1,0,5] + x[1,4,1,6] <= 1
 move_1_5_10_42: x[1,1,0,5] + x[1,4,2,6] <= 1
 move_1_5_10_43: x[1,1,0,5] + x[1,4,3,6] <= 1
 move_1_5_10_44: x[1,1,0,5] + x[1,4,4,6] <= 1
 move_1_5_11_03: x[1,0,3,6] + x[1,1,1,5] <= 1
 move_1_5_11_04: x[1,0,4,6] + x[1,1,1,5] <= 1
 move_1_5_11_14: x[1,1,1,5] + x[1,1,4,6] <= 1
 move_1_5_11_23: x[1,1,1,5] + x[1,2,3,6] <= 1
 move_1_5_11_24: x[1,1,1,5] + x[1,2,4,6] <= 1
 move_1_5_11_30: x[1,1,1,5] + x[1,3,0,6] <= 1
 move_1_5_11_32: x[1,1,1,5] + x[1,3,2,6] <= 1
 move_1_5_11_33: x[1,1,1,5] + x[1,3,3,6] <= 1
 move_1_5_11_34: x[1,1,1,5] + x[1,3,4,6] <= 1
 move_1_5_11_40: x[1,1,1,5] + x[1,4,0,6] <= 1
 move_1_5_11_41: x[1,1,1,5] + x[1,4,1,6] <= 1
 move_1_5_11_42: x[1,1,1,5] + x[1,4,2,6] <= 1
 move_1_5_11_43: x[1,1,1,5] + x[1,4,3,6] <= 1
 move_1_5_11_44: x[1,1,1,5] + x[1,4,4,6] <= 1
 move_1_5_12_00: x[1,0,0,6] + x[1,1,2,5] <= 1
 move_1_5_12_04: x[1,0,4,6] + x[1,1,2,5] <= 1
 move_1_5_12_20: x[1,1,2,5] + x[1,2,0,6] <= 1
 move_1_5_12_24: x[1,1,2,5] + x[1,2,4,6] <= 1
 move_1_5_12_30: x[1,1,2,5] + x[1,3,0,6] <= 1
 move_1_5_12_31: x[1,1,2,5] + x[1,3,1,6] <= 1
 move_1_5_12_33: x[1,1,2,5] + x[1,3,3,6] <= 1
 move_1_5_12_34: x[1,1,2,5] + x[1,3,4,6] <= 1
 move_1_5_12_40: x[1,1,2,5] + x[1,4,0,6] <= 1
 move_1_5_12_41: x[1,1,2,5] + x[1,4,1,6] <= 1
 move_1_5_12_42: x[1,1,2,5] + x[1,4,2,6] <= 1
 move_1_5_12_43: x[1,1,2,5] + x[1,4,3,6] <= 1
 move_1_5_12_44: x[1,1,2,5] + x[1,4,4,6] <= 1
 move_1_5_13_00: x[1,0,0,6] + x[1,1,3,5] <= 1
 move_1_5_13_01: x[1,0,1,6] + x[1,1,3,5] <= 1
 move_1_5_13_10: x[1,1,0,6] + x[1,1,3,5] <= 1
 move_1_5_13_20: x[1,1,3,5] + x[1,2,0,6] <= 1
 move_1_5_13_21: x[1,1,3,5] + x[1,2,1,6] <= 1
 move_1_5_13_30: x[1,1,3,5] + x[1,3,0,6] <= 1
 move_1_5_13_31: x[1,1,3,5] + x[1,3,1,6] <= 1
 move_1_5_13_32: x[1,1,3,5] + x[1,3,2,6] <= 1
 move_1_5_13_34: x[1,1,3,5] + x[1,3,4,6] <= 1
 move_1_5_13_40: x[1,1,3,5] + x[1,4,0,6] <= 1
 move_1_5_13_41: x[1,1,3,5] + x[1,4,1,6] <= 1
 move_1_5_13_42: x[1,1,3,5] + x[1,4,2,6] <= 1
 move_1_5_13_43: x[1,1,3,5] + x[1,4,3,6] <= 1
 move_1_5_13_44: x[1,1,3,5] + x[1,4,4,6] <= 1
 move_1_5_14_00: x[1,0,0,6] + x[1,1,4,5] <= 1
 move_1_5_14_01: x[1,0,1,6] + x[1,1,4,5] <= 1
 move_1_5_14_02: x[1,0,2,6] + x[1,1,4,5] <= 1
 move_1_5_14_10: x[1,1,0,6] + x[1,1,4,5] <= 1
 move_1_5_14_11: x[1,1,1,6] + x[1,1,4,5] <= 1
 move_1_5_14_20: x[1,1,4,5] + x[1,2,0,6] <= 1
 move_1_5_14_21: x[1,1,4,5] + x[1,2,1,6] <= 1
 move_1_5_14_22: x[1,1,4,5] + x[1,2,2,6] <= 1
 move_1_5_14_30: x[1,1,4,5] + x[1,3,0,6] <= 1
 move_1_5_14_31: x[1,1,4,5] + x[1,3,1,6] <= 1
 move_1_5_14_32: x[1,1,4,5] + x[1,3,2,6] <= 1
 move_1_5_14_33: x[1,1,4,5] + x[1,3,3,6] <= 1
 move_1_5_14_40: x[1,1,4,5] + x[1,4,0,6] <= 1
 move_1_5_14_41: x[1,1,4,5] + x[1,4,1,6] <= 1
 move_1_5_14_42: x[1,1,4,5] + x[1,4,2,6] <= 1
 move_1_5_14_43: x[1,1,4,5] + x[1,4,3,6] <= 1
 move_1_5_14_44: x[1,1,4,5] + x[1,4,4,6] <= 1
 move_1_5_20_01: x[1,0,1,6] + x[1,2,0,5] <= 1
 move_1_5_20_02: x[1,0,2,6] + x[1,2,0,5] <= 1
 move_1_5_20_03: x[1,0,3,6] + x[1,2,0,5] <= 1
 move_1_5_20_04: x[1,0,4,6] + x[1,2,0,5] <= 1
 move_1_5_20_12: x[1,1,2,6] + x[1,2,0,5] <= 1
 move_1_5_20_13: x[1,1,3,6] + x[1,2,0,5] <= 1
 move_1_5_20_14: x[1,1,4,6] + x[1,2,0,5] <= 1
 move_1_5_20_23: x[1,2,0,5] + x[1,2,3,6] <= 1
 move_1_5_20_24: x[1,2,0,5] + x[1,2,4,6] <= 1
 move_1_5_20_32: x[1,2,0,5] + x[1,3,2,6] <= 1
 move_1_5_20_33: x[1,2,0,5] + x[1,3,3,6] <= 1
 move_1_5_20_34: x[1,2,0,5] + x[1,3,4,6] <= 1
 move_1_5_20_41: x[1,2,0,5] + x[1,4,1,6] <= 1
 move_1_5_20_42: x[1,2,0,5] + x[1,4,2,6] <= 1
 move_1_5_20_43: x[1,2,0,5] + x[1,4,3,6] <= 1
 move_1_5_20_44: x[1,2,0,5] + x[1,4,4,6] <= 1
 move_1_5_21_00: x[1,0,0,6] + x[1,2,1,5] <= 1
 move_1_5_21_02: x[1,0,2,6] + x[1,2,1,5] <= 1
 move_1_5_21_03: x[1,0,3,6] + x[1,2,1,5] <= 1
 move_1_5_21_04: x[1,0,4,6] + x[1,2,1,5] <= 1
 move_1_5_21_13: x[1,1,3,6] + x[1,2,1,5] <= 1
 move_1_5_21_14: x[1,1,4,6] + x[1,2,1,5] <= 1
 move_1_5_21_24: x[1,2,1,5] + x[1,2,4,6] <= 1
 move_1_5_21_33: x[1,2,1,5] + x[1,3,3,6] <= 1
 move_1_5_21_34: x[1,2,1,5] + x[1,3,4,6] <= 1
 move_1_5_21_40: x[1,2,1,5] + x[1,4,0,6] <= 1
 move_1_5_21_42: x[1,2,1,5] + x[1,4,2,6] <= 1
 move_1_5_21_43: x[1,2,1,5] + x[1,4,3,6] <= 1
 move_1_5_21_44: x[1,2,1,5] + x[1,4,4,6] <= 1
 move_1_5_22_00: x[1,0,0,6] + x[1,2,2,5] <= 1
 move_1_5_22_01: x[1,0,1,6] + x[1,2,2,5] <= 1
 move_1_5_22_03: x[1,0,3,6] + x[1,2,2,5] <= 1
 move_1_5_22_04: x[1,0,4,6] + x[1,2,2,5] <= 1
 move_1_5_22_10: x[1,1,0,6] + x[1,2,2,5] <= 1
 move_1_5_22_14: x[1,1,4,6] + x[1,2,2,5] <= 1
 move_1_5_22_30: x[1,2,2,5] + x[1,3,0,6] <= 1
 move_1_5_22_34: x[1,2,2,5] + x[1,3,4,6] <= 1
 move_1_5_22_40: x[1,2,2,5] + x[1,4,0,6] <= 1
 move_1_5_22_41: x[1,2,2,5] + x[1,4,1,6] <= 1
 move_1_5_22_43: x[1,2,2,5] + x[1,4,3,6] <= 1
 move_1_5_22_44: x[1,2,2,5] + x[1,4,4,6] <= 1
 move_1_5_23_00: x[1,0,0,6] + x[1,2,3,5] <= 1
 move_1_5_23_01: x[1,0,1,6] + x[1,2,3,5] <= 1
 move_1_5_23_02: x[1,0,2,6] + x[1,2,3,5] <= 1
 move_1_5_23_04: x[1,0,4,6] + x[1,2,3,5] <= 1
 move_1_5_23_10: x[1,1,0,6] + x[1,2,3,5] <= 1
 move_1_5_23_11: x[1,1,1,6] + x[1,2,3,5] <= 1
 move_1_5_23_20: x[1,2,0,6] + x[1,2,3,5] <= 1
 move_1_5_23_30: x[1,2,3,5] + x[1,3,0,6] <= 1
 move_1_5_23_31: x[1,2,3,5] + x[1,3,1,6] <= 1
 move_1_5_23_40: x[1,2,3,5] + x[1,4,0,6] <= 1
 move_1_5_23_41: x[1,2,3,5] + x[1,4,1,6] <= 1
 move_1_5_23_42: x[1,2,3,5] + x[1,4,2,6] <= 1
 move_1_5_23_44: x[1,2,3,5] + x[1,4,4,6] <= 1
 move_1_5_24_00: x[1,0,0,6] + x[1,2,4,5] <= 1
 move_1_5_24_01: x[1,0,1,6] + x[1,2,4,5] <= 1
 move_1_5_24_02: x[1,0,2,6] + x[1,2,4,5] <= 1
 move_1_5_24_03: x[1,0,3,6] + x[1,2,4,5] <= 1
 move_1_5_24_10: x[1,1,0,6] + x[1,2,4,5] <= 1
 move_1_5_24_11: x[1,1,1,6] + x[1,2,4,5] <= 1
 move_1_5_24_12: x[1,1,2,6] + x[1,2,4,5] <= 1
 move_1_5_24_20: x[1,2,0,6] + x[1,2,4,5] <= 1
 move_1_5_24_21: x[1,2,1,6] + x[1,2,4,5] <= 1
 move_1_5_24_30: x[1,2,4,5] + x[1,3,0,6] <= 1
 move_1_5_24_31: x[1,2,4,5] + x[1,3,1,6] <= 1
 move_1_5_24_32: x[1,2,4,5] + x[1,3,2,6] <= 1
 move_1_5_24_40: x[1,2,4,5] + x[1,4,0,6] <= 1
 move_1_5_24_41: x[1,2,4,5] + x[1,4,1,6] <= 1
 move_1_5_24_42: x[1,2,4,5] + x[1,4,2,6] <= 1
 move_1_5_24_43: x[1,2,4,5] + x[1,4,3,6] <= 1
 move_1_5_30_00: x[1,0,0,6] + x[1,3,0,5] <= 1
 move_1_5_30_01: x[1,0,1,6] + x[1,3,0,5] <= 1
 move_1_5_30_02: x[1,0,2,6] + x[1,3,0,5] <= 1
 move_1_5_30_03: x[1,0,3,6] + x[1,3,0,5] <= 1
 move_1_5_30_04: x[1,0,4,6] + x[1,3,0,5] <= 1
 move_1_5_30_11: x[1,1,1,6] + x[1,3,0,5] <= 1
 move_1_5_30_12: x[1,1,2,6] + x[1,3,0,5] <= 1
 move_1_5_30_13: x[1,1,3,6] + x[1,3,0,5] <= 1
 move_1_5_30_14: x[1,1,4,6] + x[1,3,0,5] <= 1
 move_1_5_30_22: x[1,2,2,6] + x[1,3,0,5] <= 1
 move_1_5_30_23: x[1,2,3,6] + x[1,3,0,5] <= 1
 move_1_5_30_24: x[1,2,4,6] + x[1,3,0,5] <= 1
 move_1_5_30_33: x[1,3,0,5] + x[1,3,3,6] <= 1
 move_1_5_30_34: x[1,3,0,5] + x[1,3,4,6] <= 1
 move_1_5_30_42: x[1,3,0,5] + x[1,4,2,6] <= 1
 move_1_5_30_43: x[1,3,0,5] + x[1,4,3,6] <= 1
 move_1_5_30_44: x[1,3,0,5] + x[1,4,4,6] <= 1
 move_1_5_31_00: x[1,0,0,6] + x[1,3,1,5] <= 1
 move_1_5_31_01: x[1,0,1,6] + x[1,3,1,5] <= 1
 move_1_5_31_02: x[1,0,2,6] + x[1,3,1,5] <= 1
 move_1_5_31_03: x[1,0,3,6] + x[1,3,1,5] <= 1
 move_1_5_31_04: x[1,0,4,6] + x[1,3,1,5] <= 1
 move_1_5_31_10: x[1,1,0,6] + x[1,3,1,5] <= 1
 move_1_5_31_12: x[1,1,2,6] + x[1,3,1,5] <= 1
 move_1_5_31_13: x[1,1,3,6] + x[1,3,1,5] <= 1
 move_1_5_31_14: x[1,1,4,6] + x[1,3,1,5] <= 1
 move_1_5_31_23: x[1,2,3,6] + x[1,3,1,5] <= 1
 move_1_5_31_24: x[1,2,4,6] + x[1,3,1,5] <= 1
 move_1_5_31_34: x[1,3,1,5] + x[1,3,4,6] <= 1
 move_1_5_31_43: x[1,3,1,5] + x[1,4,3,6] <= 1
 move_1_5_31_44: x[1,3,1,5] + x[1,4,4,6] <= 1
 move_1_5_32_00: x[1,0,0,6] + x[1,3,2,5] <= 1
 move_1_5_32_01: x[1,0,1,6] + x[1,3,2,5] <= 1
 move_1_5_32_02: x[1,0,2,6] + x[1,3,2,5] <= 1
 move_1_5_32_03: x[1,0,3,6] + x[1,3,2,5] <= 1
 move_1_5_32_04: x[1,0,4,6] + x[1,3,2,5] <= 1
 move_1_5_32_10: x[1,1,0,6] + x[1,3,2,5] <= 1
 move_1_5_32_11: x[1,1,1,6] + x[1,3,2,5] <= 1
 move_1_5_32_13: x[1,1,3,6] + x[1,3,2,5] <= 1
 move_1_5_32_14: x[1,1,4,6] + x[1,3,2,5] <= 1
 move_1_5_32_20: x[1,2,0,6] + x[1,3,2,5] <= 1
 move_1_5_32_24: x[1,2,4,6] + x[1,3,2,5] <= 1
 move_1_5_32_40: x[1,3,2,5] + x[1,4,0,6] <= 1
 move_1_5_32_44: x[1,3,2,5] + x[1,4,4,6] <= 1
 move_1_5_33_00: x[1,0,0,6] + x[1,3,3,5] <= 1
 move_1_5_33_01: x[1,0,1,6] + x[1,3,3,5] <= 1
 move_1_5_33_02: x[1,0,2,6] + x[1,3,3,5] <= 1
 move_1_5_33_03: x[1,0,3,6] + x[1,3,3,5] <= 1
 move_1_5_33_04: x[1,0,4,6] + x[1,3,3,5] <= 1
 move_1_5_33_10: x[1,1,0,6] + x[1,3,3,5] <= 1
 move_1_5_33_11: x[1,1,1,6] + x[1,3,3,5] <= 1
 move_1_5_33_12: x[1,1,2,6] + x[1,3,3,5] <= 1
 move_1_5_33_14: x[1,1,4,6] + x[1,3,3,5] <= 1
 move_1_5_33_20: x[1,2,0,6] + x[1,3,3,5] <= 1
 move_1_5_33_21: x[1,2,1,6] + x[1,3,3,5] <= 1
 move_1_5_33_30: x[1,3,0,6] + x[1,3,3,5] <= 1
 move_1_5_33_40: x[1,3,3,5] + x[1,4,0,6] <= 1
 move_1_5_33_41: x[1,3,3,5] + x[1,4,1,6] <= 1
 move_1_5_34_00: x[1,0,0,6] + x[1,3,4,5] <= 1
 move_1_5_34_01: x[1,0,1,6] + x[1,3,4,5] <= 1
 move_1_5_34_02: x[1,0,2,6] + x[1,3,4,5] <= 1
 move_1_5_34_03: x[1,0,3,6] + x[1,3,4,5] <= 1
 move_1_5_34_04: x[1,0,4,6] + x[1,3,4,5] <= 1
 move_1_5_34_10: x[1,1,0,6] + x[1,3,4,5] <= 1
 move_1_5_34_11: x[1,1,1,6] + x[1,3,4,5] <= 1
 move_1_5_34_12: x[1,1,2,6] + x[1,3,4,5] <= 1
 move_1_5_34_13: x[1,1,3,6] + x[1,3,4,5] <= 1
 move_1_5_34_20: x[1,2,0,6] + x[1,3,4,5] <= 1
 move_1_5_34_21: x[1,2,1,6] + x[1,3,4,5] <= 1
 move_1_5_34_22: x[1,2,2,6] + x[1,3,4,5] <= 1
 move_1_5_34_30: x[1,3,0,6] + x[1,3,4,5] <= 1
 move_1_5_34_31: x[1,3,1,6] + x[1,3,4,5] <= 1
 move_1_5_34_40: x[1,3,4,5] + x[1,4,0,6] <= 1
 move_1_5_34_41: x[1,3,4,5] + x[1,4,1,6] <= 1
 move_1_5_34_42: x[1,3,4,5] + x[1,4,2,6] <= 1
 move_1_5_40_00: x[1,0,0,6] + x[1,4,0,5] <= 1
 move_1_5_40_01: x[1,0,1,6] + x[1,4,0,5] <= 1
 move_1_5_40_02: x[1,0,2,6] + x[1,4,0,5] <= 1
 move_1_5_40_03: x[1,0,3,6] + x[1,4,0,5] <= 1
 move_1_5_40_04: x[1,0,4,6] + x[1,4,0,5] <= 1
 move_1_5_40_10: x[1,1,0,6] + x[1,4,0,5] <= 1
 move_1_5_40_11: x[1,1,1,6] + x[1,4,0,5] <= 1
 move_1_5_40_12: x[1,1,2,6] + x[1,4,0,5] <= 1
 move_1_5_40_13: x[1,1,3,6] + x[1,4,0,5] <= 1
 move_1_5_40_14: x[1,1,4,6] + x[1,4,0,5] <= 1
 move_1_5_40_21: x[1,2,1,6] + x[1,4,0,5] <= 1
 move_1_5_40_22: x[1,2,2,6] + x[1,4,0,5] <= 1
 move_1_5_40_23: x[1,2,3,6] + x[1,4,0,5] <= 1
 move_1_5_40_24: x[1,2,4,6] + x[1,4,0,5] <= 1
 move_1_5_40_32: x[1,3,2,6] + x[1,4,0,5] <= 1
 move_1_5_40_33: x[1,3,3,6] + x[1,4,0,5] <= 1
 move_1_5_40_34: x[1,3,4,6] + x[1,4,0,5] <= 1
 move_1_5_40_43: x[1,4,0,5] + x[1,4,3,6] <= 1
 move_1_5_40_44: x[1,4,0,5] + x[1,4,4,6] <= 1
 move_1_5_41_00: x[1,0,0,6] + x[1,4,1,5] <= 1
 move_1_5_41_01: x[1,0,1,6] + x[1,4,1,5] <= 1
 move_1_5_41_02: x[1,0,2,6] + x[1,4,1,5] <= 1
 move_1_5_41_03: x[1,0,3,6] + x[1,4,1,5] <= 1
 move_1_5_41_04: x[1,0,4,6] + x[1,4,1,5] <= 1
 move_1_5_41_10: x[1,1,0,6] + x[1,4,1,5] <= 1
 move_1_5_41_11: x[1,1,1,6] + x[1,4,1,5] <= 1
 move_1_5_41_12: x[1,1,2,6] + x[1,4,1,5] <= 1
 move_1_5_41_13: x[1,1,3,6] + x[1,4,1,5] <= 1
 move_1_5_41_14: x[1,1,4,6] + x[1,4,1,5] <= 1
 move_1_5_41_20: x[1,2,0,6] + x[1,4,1,5] <= 1
 move_1_5_41_22: x[1,2,2,6] + x[1,4,1,5] <= 1
 move_1_5_41_23: x[1,2,3,6] + x[1,4,1,5] <= 1
 move_1_5_41_24: x[1,2,4,6] + x[1,4,1,5] <= 1
 move_1_5_41_33: x[1,3,3,6] + x[1,4,1,5] <= 1
 move_1_5_41_34: x[1,3,4,6] + x[1,4,1,5] <= 1
 move_1_5_41_44: x[1,4,1,5] + x[1,4,4,6] <= 1
 move_1_5_42_00: x[1,0,0,6] + x[1,4,2,5] <= 1
 move_1_5_42_01: x[1,0,1,6] + x[1,4,2,5] <= 1
 move_1_5_42_02: x[1,0,2,6] + x[1,4,2,5] <= 1
 move_1_5_42_03: x[1,0,3,6] + x[1,4,2,5] <= 1
 move_1_5_42_04: x[1,0,4,6] + x[1,4,2,5] <= 1
 move_1_5_42_10: x[1,1,0,6] + x[1,4,2,5] <= 1
 move_1_5_42_11: x[1,1,1,6] + x[1,4,2,5] <= 1
 move_1_5_42_12: x[1,1,2,6] + x[1,4,2,5] <= 1
 move_1_5_42_13: x[1,1,3,6] + x[1,4,2,5] <= 1
 move_1_5_42_14: x[1,1,4,6] + x[1,4,2,5] <= 1
 move_1_5_42_20: x[1,2,0,6] + x[1,4,2,5] <= 1
 move_1_5_42_21: x[1,2,1,6] + x[1,4,2,5] <= 1
 move_1_5_42_23: x[1,2,3,6] + x[1,4,2,5] <= 1
 move_1_5_42_24: x[1,2,4,6] + x[1,4,2,5] <= 1
 move_1_5_42_30: x[1,3,0,6] + x[1,4,2,5] <= 1
 move_1_5_42_34: x[1,3,4,6] + x[1,4,2,5] <= 1
 move_1_5_43_00: x[1,0,0,6] + x[1,4,3,5] <= 1
 move_1_5_43_01: x[1,0,1,6] + x[1,4,3,5] <= 1
 move_1_5_43_02: x[1,0,2,6] + x[1,4,3,5] <= 1
 move_1_5_43_03: x[1,0,3,6] + x[1,4,3,5] <= 1
 move_1_5_43_04: x[1,0,4,6] + x[1,4,3,5] <= 1
 move_1_5_43_10: x[1,1,0,6] + x[1,4,3,5] <= 1
 move_1_5_43_11: x[1,1,1,6] + x[1,4,3,5] <= 1
 move_1_5_43_12: x[1,1,2,6] + x[1,4,3,5] <= 1
 move_1_5_43_13: x[1,1,3,6] + x[1,4,3,5] <= 1
 move_1_5_43_14: x[1,1,4,6] + x[1,4,3,5] <= 1
 move_1_5_43_20: x[1,2,0,6] + x[1,4,3,5] <= 1
 move_1_5_43_21: x[1,2,1,6] + x[1,4,3,5] <= 1
 move_1_5_43_22: x[1,2,2,6] + x[1,4,3,5] <= 1
 move_1_5_43_24: x[1,2,4,6] + x[1,4,3,5] <= 1
 move_1_5_43_30: x[1,3,0,6] + x[1,4,3,5] <= 1
 move_1_5_43_31: x[1,3,1,6] + x[1,4,3,5] <= 1
 move_1_5_43_40: x[1,4,0,6] + x[1,4,3,5] <= 1
 move_1_5_44_00: x[1,0,0,6] + x[1,4,4,5] <= 1
 move_1_5_44_01: x[1,0,1,6] + x[1,4,4,5] <= 1
 move_1_5_44_02: x[1,0,2,6] + x[1,4,4,5] <= 1
 move_1_5_44_03: x[1,0,3,6] + x[1,4,4,5] <= 1
 move_1_5_44_04: x[1,0,4,6] + x[1,4,4,5] <= 1
 move_1_5_44_10: x[1,1,0,6] + x[1,4,4,5] <= 1
 move_1_5_44_11: x[1,1,1,6] + x[1,4,4,5] <= 1
 move_1_5_44_12: x[1,1,2,6] + x[1,4,4,5] <= 1
 move_1_5_44_13: x[1,1,3,6] + x[1,4,4,5] <= 1
 move_1_5_44_14: x[1,1,4,6] + x[1,4,4,5] <= 1
 move_1_5_44_20: x[1,2,0,6] + x[1,4,4,5] <= 1
 move_1_5_44_21: x[1,2,1,6] + x[1,4,4,5] <= 1
 move_1_5_44_22: x[1,2,2,6] + x[1,4,4,5] <= 1
 move_1_5_44_23: x[1,2,3,6] + x[1,4,4,5] <= 1
 move_1_5_44_30: x[1,3,0,6] + x[1,4,4,5] <= 1
 move_1_5_44_31: x[1,3,1,6] + x[1,4,4,5] <= 1
 move_1_5_44_32: x[1,3,2,6] + x[1,4,4,5] <= 1
 move_1_5_44_40: x[1,4,0,6] + x[1,4,4,5] <= 1
 move_1_5_44_41: x[1,4,1,6] + x[1,4,4,5] <= 1
 move_1_6_00_03: x[1,0,0,6] + x[1,0,3,7] <= 1
 move_1_6_00_04: x[1,0,0,6] + x[1,0,4,7] <= 1
 move_1_6_00_12: x[1,0,0,6] + x[1,1,2,7] <= 1
 move_1_6_00_13: x[1,0,0,6] + x[1,1,3,7] <= 1
 move_1_6_00_14: x[1,0,0,6] + x[1,1,4,7] <= 1
 move_1_6_00_21: x[1,0,0,6] + x[1,2,1,7] <= 1
 move_1_6_00_22: x[1,0,0,6] + x[1,2,2,7] <= 1
 move_1_6_00_23: x[1,0,0,6] + x[1,2,3,7] <= 1
 move_1_6_00_24: x[1,0,0,6] + x[1,2,4,7] <= 1
 move_1_6_00_30: x[1,0,0,6] + x[1,3,0,7] <= 1
 move_1_6_00_31: x[1,0,0,6] + x[1,3,1,7] <= 1
 move_1_6_00_32: x[1,0,0,6] + x[1,3,2,7] <= 1
 move_1_6_00_33: x[1,0,0,6] + x[1,3,3,7] <= 1
 move_1_6_00_34: x[1,0,0,6] + x[1,3,4,7] <= 1
 move_1_6_00_40: x[1,0,0,6] + x[1,4,0,7] <= 1
 move_1_6_00_41: x[1,0,0,6] + x[1,4,1,7] <= 1
 move_1_6_00_42: x[1,0,0,6] + x[1,4,2,7] <= 1
 move_1_6_00_43: x[1,0,0,6] + x[1,4,3,7] <= 1
 move_1_6_00_44: x[1,0,0,6] + x[1,4,4,7] <= 1
 move_1_6_01_04: x[1,0,1,6] + x[1,0,4,7] <= 1
 move_1_6_01_13: x[1,0,1,6] + x[1,1,3,7] <= 1
 move_1_6_01_14: x[1,0,1,6] + x[1,1,4,7] <= 1
 move_1_6_01_20: x[1,0,1,6] + x[1,2,0,7] <= 1
 move_1_6_01_22: x[1,0,1,6] + x[1,2,2,7] <= 1
 move_1_6_01_23: x[1,0,1,6] + x[1,2,3,7] <= 1
 move_1_6_01_24: x[1,0,1,6] + x[1,2,4,7] <= 1
 move_1_6_01_30: x[1,0,1,6] + x[1,3,0,7] <= 1
 move_1_6_01_31: x[1,0,1,6] + x[1,3,1,7] <= 1
 move_1_6_01_32: x[1,0,1,6] + x[1,3,2,7] <= 1
 move_1_6_01_33: x[1,0,1,6] + x[1,3,3,7] <= 1
 move_1_6_01_34: x[1,0,1,6] + x[1,3,4,7] <= 1
 move_1_6_01_40: x[1,0,1,6] + x[1,4,0,7] <= 1
 move_1_6_01_41: x[1,0,1,6] + x[1,4,1,7] <= 1
 move_1_6_01_42: x[1,0,1,6] + x[1,4,2,7] <= 1
 move_1_6_01_43: x[1,0,1,6] + x[1,4,3,7] <= 1
 move_1_6_01_44: x[1,0,1,6] + x[1,4,4,7] <= 1
 move_1_6_02_10: x[1,0,2,6] + x[1,1,0,7] <= 1
 move_1_6_02_14: x[1,0,2,6] + x[1,1,4,7] <= 1
 move_1_6_02_20: x[1,0,2,6] + x[1,2,0,7] <= 1
 move_1_6_02_21: x[1,0,2,6] + x[1,2,1,7] <= 1
 move_1_6_02_23: x[1,0,2,6] + x[1,2,3,7] <= 1
 move_1_6_02_24: x[1,0,2,6] + x[1,2,4,7] <= 1
 move_1_6_02_30: x[1,0,2,6] + x[1,3,0,7] <= 1
 move_1_6_02_31: x[1,0,2,6] + x[1,3,1,7] <= 1
 move_1_6_02_32: x[1,0,2,6] + x[1,3,2,7] <= 1
 move_1_6_02_33: x[1,0,2,6] + x[1,3,3,7] <= 1
 move_1_6_02_34: x[1,0,2,6] + x[1,3,4,7] <= 1
 move_1_6_02_40: x[1,0,2,6] + x[1,4,0,7] <= 1
 move_1_6_02_41: x[1,0,2,6] + x[1,4,1,7] <= 1
 move_1_6_02_42: x[1,0,2,6] + x[1,4,2,7] <= 1
 move_1_6_02_43: x[1,0,2,6] + x[1,4,3,7] <= 1
 move_1_6_02_44: x[1,0,2,6] + x[1,4,4,7] <= 1
 move_1_6_03_00: x[1,0,0,7] + x[1,0,3,6] <= 1
 move_1_6_03_10: x[1,0,3,6] + x[1,1,0,7] <= 1
 move_1_6_03_11: x[1,0,3,6] + x[1,1,1,7] <= 1
 move_1_6_03_20: x[1,0,3,6] + x[1,2,0,7] <= 1
 move_1_6_03_21: x[1,0,3,6] + x[1,2,1,7] <= 1
 move_1_6_03_22: x[1,0,3,6] + x[1,2,2,7] <= 1
 move_1_6_03_24: x[1,0,3,6] + x[1,2,4,7] <= 1
 move_1_6_03_30: x[1,0,3,6] + x[1,3,0,7] <= 1
 move_1_6_03_31: x[1,0,3,6] + x[1,3,1,7] <= 1
 move_1_6_03_32: x[1,0,3,6] + x[1,3,2,7] <= 1
 move_1_6_03_33: x[1,0,3,6] + x[1,3,3,7] <= 1
 move_1_6_03_34: x[1,0,3,6] + x[1,3,4,7] <= 1
 move_1_6_03_40: x[1,0,3,6] + x[1,4,0,7] <= 1
 move_1_6_03_41: x[1,0,3,6] + x[1,4,1,7] <= 1
 move_1_6_03_42: x[1,0,3,6] + x[1,4,2,7] <= 1
 move_1_6_03_43: x[1,0,3,6] + x[1,4,3,7] <= 1
 move_1_6_03_44: x[1,0,3,6] + x[1,4,4,7] <= 1
 move_1_6_04_00: x[1,0,0,7] + x[1,0,4,6] <= 1
 move_1_6_04_01: x[1,0,1,7] + x[1,0,4,6] <= 1
 move_1_6_04_10: x[1,0,4,6] + x[1,1,0,7] <= 1
 move_1_6_04_11: x[1,0,4,6] + x[1,1,1,7] <= 1
 move_1_6_04_12: x[1,0,4,6] + x[1,1,2,7] <= 1
 move_1_6_04_20: x[1,0,4,6] + x[1,2,0,7] <= 1
 move_1_6_04_21: x[1,0,4,6] + x[1,2,1,7] <= 1
 move_1_6_04_22: x[1,0,4,6] + x[1,2,2,7] <= 1
 move_1_6_04_23: x[1,0,4,6] + x[1,2,3,7] <= 1
 move_1_6_04_30: x[1,0,4,6] + x[1,3,0,7] <= 1
 move_1_6_04_31: x[1,0,4,6] + x[1,3,1,7] <= 1
 move_1_6_04_32: x[1,0,4,6] + x[1,3,2,7] <= 1
 move_1_6_04_33: x[1,0,4,6] + x[1,3,3,7] <= 1
 move_1_6_04_34: x[1,0,4,6] + x[1,3,4,7] <= 1
 move_1_6_04_40: x[1,0,4,6] + x[1,4,0,7] <= 1
 move_1_6_04_41: x[1,0,4,6] + x[1,4,1,7] <= 1
 move_1_6_04_42: x[1,0,4,6] + x[1,4,2,7] <= 1
 move_1_6_04_43: x[1,0,4,6] + x[1,4,3,7] <= 1
 move_1_6_04_44: x[1,0,4,6] + x[1,4,4,7] <= 1
 move_1_6_10_02: x[1,0,2,7] + x[1,1,0,6] <= 1
 move_1_6_10_03: x[1,0,3,7] + x[1,1,0,6] <= 1
 move_1_6_10_04: x[1,0,4,7] + x[1,1,0,6] <= 1
 move_1_6_10_13: x[1,1,0,6] + x[1,1,3,7] <= 1
 move_1_6_10_14: x[1,1,0,6] + x[1,1,4,7] <= 1
 move_1_6_10_22: x[1,1,0,6] + x[1,2,2,7] <= 1
 move_1_6_10_23: x[1,1,0,6] + x[1,2,3,7] <= 1
 move_1_6_10_24: x[1,1,0,6] + x[1,2,4,7] <= 1
 move_1_6_10_31: x[1,1,0,6] + x[1,3,1,7] <= 1
 move_1_6_10_32: x[1,1,0,6] + x[1,3,2,7] <= 1
 move_1_6_10_33: x[1,1,0,6] + x[1,3,3,7] <= 1
 move_1_6_10_34: x[1,1,0,6] + x[1,3,4,7] <= 1
 move_1_6_10_40: x[1,1,0,6] + x[1,4,0,7] <= 1
 move_1_6_10_41: x[1,1,0,6] + x[1,4,1,7] <= 1
 move_1_6_10_42: x[1,1,0,6] + x[1,4,2,7] <= 1
 move_1_6_10_43: x[1,1,0,6] + x[1,4,3,7] <= 1
 move_1_6_10_44: x[1,1,0,6] + x[1,4,4,7] <= 1
 move_1_6_11_03: x[1,0,3,7] + x[1,1,1,6] <= 1
 move_1_6_11_04: x[1,0,4,7] + x[1,1,1,6] <= 1
 move_1_6_11_14: x[1,1,1,6] + x[1,1,4,7] <= 1
 move_1_6_11_23: x[1,1,1,6] + x[1,2,3,7] <= 1
 move_1_6_11_24: x[1,1,1,6] + x[1,2,4,7] <= 1
 move_1_6_11_30: x[1,1,1,6] + x[1,3,0,7] <= 1
 move_1_6_11_32: x[1,1,1,6] + x[1,3,2,7] <= 1
 move_1_6_11_33: x[1,1,1,6] + x[1,3,3,7] <= 1
 move_1_6_11_34: x[1,1,1,6] + x[1,3,4,7] <= 1
 move_1_6_11_40: x[1,1,1,6] + x[1,4,0,7] <= 1
 move_1_6_11_41: x[1,1,1,6] + x[1,4,1,7] <= 1
 move_1_6_11_42: x[1,1,1,6] + x[1,4,2,7] <= 1
 move_1_6_11_43: x[1,1,1,6] + x[1,4,3,7] <= 1
 move_1_6_11_44: x[1,1,1,6] + x[1,4,4,7] <= 1
 move_1_6_12_00: x[1,0,0,7] + x[1,1,2,6] <= 1
 move_1_6_12_04: x[1,0,4,7] + x[1,1,2,6] <= 1
 move_1_6_12_20: x[1,1,2,6] + x[1,2,0,7] <= 1
 move_1_6_12_24: x[1,1,2,6] + x[1,2,4,7] <= 1
 move_1_6_12_30: x[1,1,2,6] + x[1,3,0,7] <= 1
 move_1_6_12_31: x[1,1,2,6] + x[1,3,1,7] <= 1
 move_1_6_12_33: x[1,1,2,6] + x[1,3,3,7] <= 1
 move_1_6_12_34: x[1,1,2,6] + x[1,3,4,7] <= 1
 move_1_6_12_40: x[1,1,2,6] + x[1,4,0,7] <= 1
 move_1_6_12_41: x[1,1,2,6] + x[1,4,1,7] <= 1
 move_1_6_12_42: x[1,1,2,6] + x[1,4,2,7] <= 1
 move_1_6_12_43: x[1,1,2,6] + x[1,4,3,7] <= 1
 move_1_6_12_44: x[1,1,2,6] + x[1,4,4,7] <= 1
 move_1_6_13_00: x[1,0,0,7] + x[1,1,3,6] <= 1
 move_1_6_13_01: x[1,0,1,7] + x[1,1,3,6] <= 1
 move_1_6_13_10: x[1,1,0,7] + x[1,1,3,6] <= 1
 move_1_6_13_20: x[1,1,3,6] + x[1,2,0,7] <= 1
 move_1_6_13_21: x[1,1,3,6] + x[1,2,1,7] <= 1
 move_1_6_13_30: x[1,1,3,6] + x[1,3,0,7] <= 1
 move_1_6_13_31: x[1,1,3,6] + x[1,3,1,7] <= 1
 move_1_6_13_32: x[1,1,3,6] + x[1,3,2,7] <= 1
 move_1_6_13_34: x[1,1,3,6] + x[1,3,4,7] <= 1
 move_1_6_13_40: x[1,1,3,6] + x[1,4,0,7] <= 1
 move_1_6_13_41: x[1,1,3,6] + x[1,4,1,7] <= 1
 move_1_6_13_42: x[1,1,3,6] + x[1,4,2,7] <= 1
 move_1_6_13_43: x[1,1,3,6] + x[1,4,3,7] <= 1
 move_1_6_13_44: x[1,1,3,6] + x[1,4,4,7] <= 1
 move_1_6_14_00: x[1,0,0,7] + x[1,1,4,6] <= 1
 move_1_6_14_01: x[1,0,1,7] + x[1,1,4,6] <= 1
 move_1_6_14_02: x[1,0,2,7] + x[1,1,4,6] <= 1
 move_1_6_14_10: x[1,1,0,7] + x[1,1,4,6] <= 1
 move_1_6_14_11: x[1,1,1,7] + x[1,1,4,6] <= 1
 move_1_6_14_20: x[1,1,4,6] + x[1,2,0,7] <= 1
 move_1_6_14_21: x[1,1,4,6] + x[1,2,1,7] <= 1
 move_1_6_14_22: x[1,1,4,6] + x[1,2,2,7] <= 1
 move_1_6_14_30: x[1,1,4,6] + x[1,3,0,7] <= 1
 move_1_6_14_31: x[1,1,4,6] + x[1,3,1,7] <= 1
 move_1_6_14_32: x[1,1,4,6] + x[1,3,2,7] <= 1
 move_1_6_14_33: x[1,1,4,6] + x[1,3,3,7] <= 1
 move_1_6_14_40: x[1,1,4,6] + x[1,4,0,7] <= 1
 move_1_6_14_41: x[1,1,4,6] + x[1,4,1,7] <= 1
 move_1_6_14_42: x[1,1,4,6] + x[1,4,2,7] <= 1
 move_1_6_14_43: x[1,1,4,6] + x[1,4,3,7] <= 1
 move_1_6_14_44: x[1,1,4,6] + x[1,4,4,7] <= 1
 move_1_6_20_01: x[1,0,1,7] + x[1,2,0,6] <= 1
 move_1_6_20_02: x[1,0,2,7] + x[1,2,0,6] <= 1
 move_1_6_20_03: x[1,0,3,7] + x[1,2,0,6] <= 1
 move_1_6_20_04: x[1,0,4,7] + x[1,2,0,6] <= 1
 move_1_6_20_12: x[1,1,2,7] + x[1,2,0,6] <= 1
 move_1_6_20_13: x[1,1,3,7] + x[1,2,0,6] <= 1
 move_1_6_20_14: x[1,1,4,7] + x[1,2,0,6] <= 1
 move_1_6_20_23: x[1,2,0,6] + x[1,2,3,7] <= 1
 move_1_6_20_24: x[1,2,0,6] + x[1,2,4,7] <= 1
 move_1_6_20_32: x[1,2,0,6] + x[1,3,2,7] <= 1
 move_1_6_20_33: x[1,2,0,6] + x[1,3,3,7] <= 1
 move_1_6_20_34: x[1,2,0,6] + x[1,3,4,7] <= 1
 move_1_6_20_41: x[1,2,0,6] + x[1,4,1,7] <= 1
 move_1_6_20_42: x[1,2,0,6] + x[1,4,2,7] <= 1
 move_1_6_20_43: x[1,2,0,6] + x[1,4,3,7] <= 1
 move_1_6_20_44: x[1,2,0,6] + x[1,4,4,7] <= 1
 move_1_6_21_00: x[1,0,0,7] + x[1,2,1,6] <= 1
 move_1_6_21_02: x[1,0,2,7] + x[1,2,1,6] <= 1
 move_1_6_21_03: x[1,0,3,7] + x[1,2,1,6] <= 1
 move_1_6_21_04: x[1,0,4,7] + x[1,2,1,6] <= 1
 move_1_6_21_13: x[1,1,3,7] + x[1,2,1,6] <= 1
 move_1_6_21_14: x[1,1,4,7] + x[1,2,1,6] <= 1
 move_1_6_21_24: x[1,2,1,6] + x[1,2,4,7] <= 1
 move_1_6_21_33: x[1,2,1,6] + x[1,3,3,7] <= 1
 move_1_6_21_34: x[1,2,1,6] + x[1,3,4,7] <= 1
 move_1_6_21_40: x[1,2,1,6] + x[1,4,0,7] <= 1
 move_1_6_21_42: x[1,2,1,6] + x[1,4,2,7] <= 1
 move_1_6_21_43: x[1,2,1,6] + x[1,4,3,7] <= 1
 move_1_6_21_44: x[1,2,1,6] + x[1,4,4,7] <= 1
 move_1_6_22_00: x[1,0,0,7] + x[1,2,2,6] <= 1
 move_1_6_22_01: x[1,0,1,7] + x[1,2,2,6] <= 1
 move_1_6_22_03: x[1,0,3,7] + x[1,2,2,6] <= 1
 move_1_6_22_04: x[1,0,4,7] + x[1,2,2,6] <= 1
 move_1_6_22_10: x[1,1,0,7] + x[1,2,2,6] <= 1
 move_1_6_22_14: x[1,1,4,7] + x[1,2,2,6] <= 1
 move_1_6_22_30: x[1,2,2,6] + x[1,3,0,7] <= 1
 move_1_6_22_34: x[1,2,2,6] + x[1,3,4,7] <= 1
 move_1_6_22_40: x[1,2,2,6] + x[1,4,0,7] <= 1
 move_1_6_22_41: x[1,2,2,6] + x[1,4,1,7] <= 1
 move_1_6_22_43: x[1,2,2,6] + x[1,4,3,7] <= 1
 move_1_6_22_44: x[1,2,2,6] + x[1,4,4,7] <= 1
 move_1_6_23_00: x[1,0,0,7] + x[1,2,3,6] <= 1
 move_1_6_23_01: x[1,0,1,7] + x[1,2,3,6] <= 1
 move_1_6_23_02: x[1,0,2,7] + x[1,2,3,6] <= 1
 move_1_6_23_04: x[1,0,4,7] + x[1,2,3,6] <= 1
 move_1_6_23_10: x[1,1,0,7] + x[1,2,3,6] <= 1
 move_1_6_23_11: x[1,1,1,7] + x[1,2,3,6] <= 1
 move_1_6_23_20: x[1,2,0,7] + x[1,2,3,6] <= 1
 move_1_6_23_30: x[1,2,3,6] + x[1,3,0,7] <= 1
 move_1_6_23_31: x[1,2,3,6] + x[1,3,1,7] <= 1
 move_1_6_23_40: x[1,2,3,6] + x[1,4,0,7] <= 1
 move_1_6_23_41: x[1,2,3,6] + x[1,4,1,7] <= 1
 move_1_6_23_42: x[1,2,3,6] + x[1,4,2,7] <= 1
 move_1_6_23_44: x[1,2,3,6] + x[1,4,4,7] <= 1
 move_1_6_24_00: x[1,0,0,7] + x[1,2,4,6] <= 1
 move_1_6_24_01: x[1,0,1,7] + x[1,2,4,6] <= 1
 move_1_6_24_02: x[1,0,2,7] + x[1,2,4,6] <= 1
 move_1_6_24_03: x[1,0,3,7] + x[1,2,4,6] <= 1
 move_1_6_24_10: x[1,1,0,7] + x[1,2,4,6] <= 1
 move_1_6_24_11: x[1,1,1,7] + x[1,2,4,6] <= 1
 move_1_6_24_12: x[1,1,2,7] + x[1,2,4,6] <= 1
 move_1_6_24_20: x[1,2,0,7] + x[1,2,4,6] <= 1
 move_1_6_24_21: x[1,2,1,7] + x[1,2,4,6] <= 1
 move_1_6_24_30: x[1,2,4,6] + x[1,3,0,7] <= 1
 move_1_6_24_31: x[1,2,4,6] + x[1,3,1,7] <= 1
 move_1_6_24_32: x[1,2,4,6] + x[1,3,2,7] <= 1
 move_1_6_24_40: x[1,2,4,6] + x[1,4,0,7] <= 1
 move_1_6_24_41: x[1,2,4,6] + x[1,4,1,7] <= 1
 move_1_6_24_42: x[1,2,4,6] + x[1,4,2,7] <= 1
 move_1_6_24_43: x[1,2,4,6] + x[1,4,3,7] <= 1
 move_1_6_30_00: x[1,0,0,7] + x[1,3,0,6] <= 1
 move_1_6_30_01: x[1,0,1,7] + x[1,3,0,6] <= 1
 move_1_6_30_02: x[1,0,2,7] + x[1,3,0,6] <= 1
 move_1_6_30_03: x[1,0,3,7] + x[1,3,0,6] <= 1
 move_1_6_30_04: x[1,0,4,7] + x[1,3,0,6] <= 1
 move_1_6_30_11: x[1,1,1,7] + x[1,3,0,6] <= 1
 move_1_6_30_12: x[1,1,2,7] + x[1,3,0,6] <= 1
 move_1_6_30_13: x[1,1,3,7] + x[1,3,0,6] <= 1
 move_1_6_30_14: x[1,1,4,7] + x[1,3,0,6] <= 1
 move_1_6_30_22: x[1,2,2,7] + x[1,3,0,6] <= 1
 move_1_6_30_23: x[1,2,3,7] + x[1,3,0,6] <= 1
 move_1_6_30_24: x[1,2,4,7] + x[1,3,0,6] <= 1
 move_1_6_30_33: x[1,3,0,6] + x[1,3,3,7] <= 1
 move_1_6_30_34: x[1,3,0,6] + x[1,3,4,7] <= 1
 move_1_6_30_42: x[1,3,0,6] + x[1,4,2,7] <= 1
 move_1_6_30_43: x[1,3,0,6] + x[1,4,3,7] <= 1
 move_1_6_30_44: x[1,3,0,6] + x[1,4,4,7] <= 1
 move_1_6_31_00: x[1,0,0,7] + x[1,3,1,6] <= 1
 move_1_6_31_01: x[1,0,1,7] + x[1,3,1,6] <= 1
 move_1_6_31_02: x[1,0,2,7] + x[1,3,1,6] <= 1
 move_1_6_31_03: x[1,0,3,7] + x[1,3,1,6] <= 1
 move_1_6_31_04: x[1,0,4,7] + x[1,3,1,6] <= 1
 move_1_6_31_10: x[1,1,0,7] + x[1,3,1,6] <= 1
 move_1_6_31_12: x[1,1,2,7] + x[1,3,1,6] <= 1
 move_1_6_31_13: x[1,1,3,7] + x[1,3,1,6] <= 1
 move_1_6_31_14: x[1,1,4,7] + x[1,3,1,6] <= 1
 move_1_6_31_23: x[1,2,3,7] + x[1,3,1,6] <= 1
 move_1_6_31_24: x[1,2,4,7] + x[1,3,1,6] <= 1
 move_1_6_31_34: x[1,3,1,6] + x[1,3,4,7] <= 1
 move_1_6_31_43: x[1,3,1,6] + x[1,4,3,7] <= 1
 move_1_6_31_44: x[1,3,1,6] + x[1,4,4,7] <= 1
 move_1_6_32_00: x[1,0,0,7] + x[1,3,2,6] <= 1
 move_1_6_32_01: x[1,0,1,7] + x[1,3,2,6] <= 1
 move_1_6_32_02: x[1,0,2,7] + x[1,3,2,6] <= 1
 move_1_6_32_03: x[1,0,3,7] + x[1,3,2,6] <= 1
 move_1_6_32_04: x[1,0,4,7] + x[1,3,2,6] <= 1
 move_1_6_32_10: x[1,1,0,7] + x[1,3,2,6] <= 1
 move_1_6_32_11: x[1,1,1,7] + x[1,3,2,6] <= 1
 move_1_6_32_13: x[1,1,3,7] + x[1,3,2,6] <= 1
 move_1_6_32_14: x[1,1,4,7] + x[1,3,2,6] <= 1
 move_1_6_32_20: x[1,2,0,7] + x[1,3,2,6] <= 1
 move_1_6_32_24: x[1,2,4,7] + x[1,3,2,6] <= 1
 move_1_6_32_40: x[1,3,2,6] + x[1,4,0,7] <= 1
 move_1_6_32_44: x[1,3,2,6] + x[1,4,4,7] <= 1
 move_1_6_33_00: x[1,0,0,7] + x[1,3,3,6] <= 1
 move_1_6_33_01: x[1,0,1,7] + x[1,3,3,6] <= 1
 move_1_6_33_02: x[1,0,2,7] + x[1,3,3,6] <= 1
 move_1_6_33_03: x[1,0,3,7] + x[1,3,3,6] <= 1
 move_1_6_33_04: x[1,0,4,7] + x[1,3,3,6] <= 1
 move_1_6_33_10: x[1,1,0,7] + x[1,3,3,6] <= 1
 move_1_6_33_11: x[1,1,1,7] + x[1,3,3,6] <= 1
 move_1_6_33_12: x[1,1,2,7] + x[1,3,3,6] <= 1
 move_1_6_33_14: x[1,1,4,7] + x[1,3,3,6] <= 1
 move_1_6_33_20: x[1,2,0,7] + x[1,3,3,6] <= 1
 move_1_6_33_21: x[1,2,1,7] + x[1,3,3,6] <= 1
 move_1_6_33_30: x[1,3,0,7] + x[1,3,3,6] <= 1
 move_1_6_33_40: x[1,3,3,6] + x[1,4,0,7] <= 1
 move_1_6_33_41: x[1,3,3,6] + x[1,4,1,7] <= 1
 move_1_6_34_00: x[1,0,0,7] + x[1,3,4,6] <= 1
 move_1_6_34_01: x[1,0,1,7] + x[1,3,4,6] <= 1
 move_1_6_34_02: x[1,0,2,7] + x[1,3,4,6] <= 1
 move_1_6_34_03: x[1,0,3,7] + x[1,3,4,6] <= 1
 move_1_6_34_04: x[1,0,4,7] + x[1,3,4,6] <= 1
 move_1_6_34_10: x[1,1,0,7] + x[1,3,4,6] <= 1
 move_1_6_34_11: x[1,1,1,7] + x[1,3,4,6] <= 1
 move_1_6_34_12: x[1,1,2,7] + x[1,3,4,6] <= 1
 move_1_6_34_13: x[1,1,3,7] + x[1,3,4,6] <= 1
 move_1_6_34_20: x[1,2,0,7] + x[1,3,4,6] <= 1
 move_1_6_34_21: x[1,2,1,7] + x[1,3,4,6] <= 1
 move_1_6_34_22: x[1,2,2,7] + x[1,3,4,6] <= 1
 move_1_6_34_30: x[1,3,0,7] + x[1,3,4,6] <= 1
 move_1_6_34_31: x[1,3,1,7] + x[1,3,4,6] <= 1
 move_1_6_34_40: x[1,3,4,6] + x[1,4,0,7] <= 1
 move_1_6_34_41: x[1,3,4,6] + x[1,4,1,7] <= 1
 move_1_6_34_42: x[1,3,4,6] + x[1,4,2,7] <= 1
 move_1_6_40_00: x[1,0,0,7] + x[1,4,0,6] <= 1
 move_1_6_40_01: x[1,0,1,7] + x[1,4,0,6] <= 1
 move_1_6_40_02: x[1,0,2,7] + x[1,4,0,6] <= 1
 move_1_6_40_03: x[1,0,3,7] + x[1,4,0,6] <= 1
 move_1_6_40_04: x[1,0,4,7] + x[1,4,0,6] <= 1
 move_1_6_40_10: x[1,1,0,7] + x[1,4,0,6] <= 1
 move_1_6_40_11: x[1,1,1,7] + x[1,4,0,6] <= 1
 move_1_6_40_12: x[1,1,2,7] + x[1,4,0,6] <= 1
 move_1_6_40_13: x[1,1,3,7] + x[1,4,0,6] <= 1
 move_1_6_40_14: x[1,1,4,7] + x[1,4,0,6] <= 1
 move_1_6_40_21: x[1,2,1,7] + x[1,4,0,6] <= 1
 move_1_6_40_22: x[1,2,2,7] + x[1,4,0,6] <= 1
 move_1_6_40_23: x[1,2,3,7] + x[1,4,0,6] <= 1
 move_1_6_40_24: x[1,2,4,7] + x[1,4,0,6] <= 1
 move_1_6_40_32: x[1,3,2,7] + x[1,4,0,6] <= 1
 move_1_6_40_33: x[1,3,3,7] + x[1,4,0,6] <= 1
 move_1_6_40_34: x[1,3,4,7] + x[1,4,0,6] <= 1
 move_1_6_40_43: x[1,4,0,6] + x[1,4,3,7] <= 1
 move_1_6_40_44: x[1,4,0,6] + x[1,4,4,7] <= 1
 move_1_6_41_00: x[1,0,0,7] + x[1,4,1,6] <= 1
 move_1_6_41_01: x[1,0,1,7] + x[1,4,1,6] <= 1
 move_1_6_41_02: x[1,0,2,7] + x[1,4,1,6] <= 1
 move_1_6_41_03: x[1,0,3,7] + x[1,4,1,6] <= 1
 move_1_6_41_04: x[1,0,4,7] + x[1,4,1,6] <= 1
 move_1_6_41_10: x[1,1,0,7] + x[1,4,1,6] <= 1
 move_1_6_41_11: x[1,1,1,7] + x[1,4,1,6] <= 1
 move_1_6_41_12: x[1,1,2,7] + x[1,4,1,6] <= 1
 move_1_6_41_13: x[1,1,3,7] + x[1,4,1,6] <= 1
 move_1_6_41_14: x[1,1,4,7] + x[1,4,1,6] <= 1
 move_1_6_41_20: x[1,2,0,7] + x[1,4,1,6] <= 1
 move_1_6_41_22: x[1,2,2,7] + x[1,4,1,6] <= 1
 move_1_6_41_23: x[1,2,3,7] + x[1,4,1,6] <= 1
 move_1_6_41_24: x[1,2,4,7] + x[1,4,1,6] <= 1
 move_1_6_41_33: x[1,3,3,7] + x[1,4,1,6] <= 1
 move_1_6_41_34: x[1,3,4,7] + x[1,4,1,6] <= 1
 move_1_6_41_44: x[1,4,1,6] + x[1,4,4,7] <= 1
 move_1_6_42_00: x[1,0,0,7] + x[1,4,2,6] <= 1
 move_1_6_42_01: x[1,0,1,7] + x[1,4,2,6] <= 1
 move_1_6_42_02: x[1,0,2,7] + x[1,4,2,6] <= 1
 move_1_6_42_03: x[1,0,3,7] + x[1,4,2,6] <= 1
 move_1_6_42_04: x[1,0,4,7] + x[1,4,2,6] <= 1
 move_1_6_42_10: x[1,1,0,7] + x[1,4,2,6] <= 1
 move_1_6_42_11: x[1,1,1,7] + x[1,4,2,6] <= 1
 move_1_6_42_12: x[1,1,2,7] + x[1,4,2,6] <= 1
 move_1_6_42_13: x[1,1,3,7] + x[1,4,2,6] <= 1
 move_1_6_42_14: x[1,1,4,7] + x[1,4,2,6] <= 1
 move_1_6_42_20: x[1,2,0,7] + x[1,4,2,6] <= 1
 move_1_6_42_21: x[1,2,1,7] + x[1,4,2,6] <= 1
 move_1_6_42_23: x[1,2,3,7] + x[1,4,2,6] <= 1
 move_1_6_42_24: x[1,2,4,7] + x[1,4,2,6] <= 1
 move_1_6_42_30: x[1,3,0,7] + x[1,4,2,6] <= 1
 move_1_6_42_34: x[1,3,4,7] + x[1,4,2,6] <= 1
 move_1_6_43_00: x[1,0,0,7] + x[1,4,3,6] <= 1
 move_1_6_43_01: x[1,0,1,7] + x[1,4,3,6] <= 1
 move_1_6_43_02: x[1,0,2,7] + x[1,4,3,6] <= 1
 move_1_6_43_03: x[1,0,3,7] + x[1,4,3,6] <= 1
 move_1_6_43_04: x[1,0,4,7] + x[1,4,3,6] <= 1
 move_1_6_43_10: x[1,1,0,7] + x[1,4,3,6] <= 1
 move_1_6_43_11: x[1,1,1,7] + x[1,4,3,6] <= 1
 move_1_6_43_12: x[1,1,2,7] + x[1,4,3,6] <= 1
 move_1_6_43_13: x[1,1,3,7] + x[1,4,3,6] <= 1
 move_1_6_43_14: x[1,1,4,7] + x[1,4,3,6] <= 1
 move_1_6_43_20: x[1,2,0,7] + x[1,4,3,6] <= 1
 move_1_6_43_21: x[1,2,1,7] + x[1,4,3,6] <= 1
 move_1_6_43_22: x[1,2,2,7] + x[1,4,3,6] <= 1
 move_1_6_43_24: x[1,2,4,7] + x[1,4,3,6] <= 1
 move_1_6_43_30: x[1,3,0,7] + x[1,4,3,6] <= 1
 move_1_6_43_31: x[1,3,1,7] + x[1,4,3,6] <= 1
 move_1_6_43_40: x[1,4,0,7] + x[1,4,3,6] <= 1
 move_1_6_44_00: x[1,0,0,7] + x[1,4,4,6] <= 1
 move_1_6_44_01: x[1,0,1,7] + x[1,4,4,6] <= 1
 move_1_6_44_02: x[1,0,2,7] + x[1,4,4,6] <= 1
 move_1_6_44_03: x[1,0,3,7] + x[1,4,4,6] <= 1
 move_1_6_44_04: x[1,0,4,7] + x[1,4,4,6] <= 1
 move_1_6_44_10: x[1,1,0,7] + x[1,4,4,6] <= 1
 move_1_6_44_11: x[1,1,1,7] + x[1,4,4,6] <= 1
 move_1_6_44_12: x[1,1,2,7] + x[1,4,4,6] <= 1
 move_1_6_44_13: x[1,1,3,7] + x[1,4,4,6] <= 1
 move_1_6_44_14: x[1,1,4,7] + x[1,4,4,6] <= 1
 move_1_6_44_20: x[1,2,0,7] + x[1,4,4,6] <= 1
 move_1_6_44_21: x[1,2,1,7] + x[1,4,4,6] <= 1
 move_1_6_44_22: x[1,2,2,7] + x[1,4,4,6] <= 1
 move_1_6_44_23: x[1,2,3,7] + x[1,4,4,6] <= 1
 move_1_6_44_30: x[1,3,0,7] + x[1,4,4,6] <= 1
 move_1_6_44_31: x[1,3,1,7] + x[1,4,4,6] <= 1
 move_1_6_44_32: x[1,3,2,7] + x[1,4,4,6] <= 1
 move_1_6_44_40: x[1,4,0,7] + x[1,4,4,6] <= 1
 move_1_6_44_41: x[1,4,1,7] + x[1,4,4,6] <= 1
 move_1_7_00_03: x[1,0,0,7] + x[1,0,3,8] <= 1
 move_1_7_00_04: x[1,0,0,7] + x[1,0,4,8] <= 1
 move_1_7_00_12: x[1,0,0,7] + x[1,1,2,8] <= 1
 move_1_7_00_13: x[1,0,0,7] + x[1,1,3,8] <= 1
 move_1_7_00_14: x[1,0,0,7] + x[1,1,4,8] <= 1
 move_1_7_00_21: x[1,0,0,7] + x[1,2,1,8] <= 1
 move_1_7_00_22: x[1,0,0,7] + x[1,2,2,8] <= 1
 move_1_7_00_23: x[1,0,0,7] + x[1,2,3,8] <= 1
 move_1_7_00_24: x[1,0,0,7] + x[1,2,4,8] <= 1
 move_1_7_00_30: x[1,0,0,7] + x[1,3,0,8] <= 1
 move_1_7_00_31: x[1,0,0,7] + x[1,3,1,8] <= 1
 move_1_7_00_32: x[1,0,0,7] + x[1,3,2,8] <= 1
 move_1_7_00_33: x[1,0,0,7] + x[1,3,3,8] <= 1
 move_1_7_00_34: x[1,0,0,7] + x[1,3,4,8] <= 1
 move_1_7_00_40: x[1,0,0,7] + x[1,4,0,8] <= 1
 move_1_7_00_41: x[1,0,0,7] + x[1,4,1,8] <= 1
 move_1_7_00_42: x[1,0,0,7] + x[1,4,2,8] <= 1
 move_1_7_00_43: x[1,0,0,7] + x[1,4,3,8] <= 1
 move_1_7_00_44: x[1,0,0,7] + x[1,4,4,8] <= 1
 move_1_7_01_04: x[1,0,1,7] + x[1,0,4,8] <= 1
 move_1_7_01_13: x[1,0,1,7] + x[1,1,3,8] <= 1
 move_1_7_01_14: x[1,0,1,7] + x[1,1,4,8] <= 1
 move_1_7_01_20: x[1,0,1,7] + x[1,2,0,8] <= 1
 move_1_7_01_22: x[1,0,1,7] + x[1,2,2,8] <= 1
 move_1_7_01_23: x[1,0,1,7] + x[1,2,3,8] <= 1
 move_1_7_01_24: x[1,0,1,7] + x[1,2,4,8] <= 1
 move_1_7_01_30: x[1,0,1,7] + x[1,3,0,8] <= 1
 move_1_7_01_31: x[1,0,1,7] + x[1,3,1,8] <= 1
 move_1_7_01_32: x[1,0,1,7] + x[1,3,2,8] <= 1
 move_1_7_01_33: x[1,0,1,7] + x[1,3,3,8] <= 1
 move_1_7_01_34: x[1,0,1,7] + x[1,3,4,8] <= 1
 move_1_7_01_40: x[1,0,1,7] + x[1,4,0,8] <= 1
 move_1_7_01_41: x[1,0,1,7] + x[1,4,1,8] <= 1
 move_1_7_01_42: x[1,0,1,7] + x[1,4,2,8] <= 1
 move_1_7_01_43: x[1,0,1,7] + x[1,4,3,8] <= 1
 move_1_7_01_44: x[1,0,1,7] + x[1,4,4,8] <= 1
 move_1_7_02_10: x[1,0,2,7] + x[1,1,0,8] <= 1
 move_1_7_02_14: x[1,0,2,7] + x[1,1,4,8] <= 1
 move_1_7_02_20: x[1,0,2,7] + x[1,2,0,8] <= 1
 move_1_7_02_21: x[1,0,2,7] + x[1,2,1,8] <= 1
 move_1_7_02_23: x[1,0,2,7] + x[1,2,3,8] <= 1
 move_1_7_02_24: x[1,0,2,7] + x[1,2,4,8] <= 1
 move_1_7_02_30: x[1,0,2,7] + x[1,3,0,8] <= 1
 move_1_7_02_31: x[1,0,2,7] + x[1,3,1,8] <= 1
 move_1_7_02_32: x[1,0,2,7] + x[1,3,2,8] <= 1
 move_1_7_02_33: x[1,0,2,7] + x[1,3,3,8] <= 1
 move_1_7_02_34: x[1,0,2,7] + x[1,3,4,8] <= 1
 move_1_7_02_40: x[1,0,2,7] + x[1,4,0,8] <= 1
 move_1_7_02_41: x[1,0,2,7] + x[1,4,1,8] <= 1
 move_1_7_02_42: x[1,0,2,7] + x[1,4,2,8] <= 1
 move_1_7_02_43: x[1,0,2,7] + x[1,4,3,8] <= 1
 move_1_7_02_44: x[1,0,2,7] + x[1,4,4,8] <= 1
 move_1_7_03_00: x[1,0,0,8] + x[1,0,3,7] <= 1
 move_1_7_03_10: x[1,0,3,7] + x[1,1,0,8] <= 1
 move_1_7_03_11: x[1,0,3,7] + x[1,1,1,8] <= 1
 move_1_7_03_20: x[1,0,3,7] + x[1,2,0,8] <= 1
 move_1_7_03_21: x[1,0,3,7] + x[1,2,1,8] <= 1
 move_1_7_03_22: x[1,0,3,7] + x[1,2,2,8] <= 1
 move_1_7_03_24: x[1,0,3,7] + x[1,2,4,8] <= 1
 move_1_7_03_30: x[1,0,3,7] + x[1,3,0,8] <= 1
 move_1_7_03_31: x[1,0,3,7] + x[1,3,1,8] <= 1
 move_1_7_03_32: x[1,0,3,7] + x[1,3,2,8] <= 1
 move_1_7_03_33: x[1,0,3,7] + x[1,3,3,8] <= 1
 move_1_7_03_34: x[1,0,3,7] + x[1,3,4,8] <= 1
 move_1_7_03_40: x[1,0,3,7] + x[1,4,0,8] <= 1
 move_1_7_03_41: x[1,0,3,7] + x[1,4,1,8] <= 1
 move_1_7_03_42: x[1,0,3,7] + x[1,4,2,8] <= 1
 move_1_7_03_43: x[1,0,3,7] + x[1,4,3,8] <= 1
 move_1_7_03_44: x[1,0,3,7] + x[1,4,4,8] <= 1
 move_1_7_04_00: x[1,0,0,8] + x[1,0,4,7] <= 1
 move_1_7_04_01: x[1,0,1,8] + x[1,0,4,7] <= 1
 move_1_7_04_10: x[1,0,4,7] + x[1,1,0,8] <= 1
 move_1_7_04_11: x[1,0,4,7] + x[1,1,1,8] <= 1
 move_1_7_04_12: x[1,0,4,7] + x[1,1,2,8] <= 1
 move_1_7_04_20: x[1,0,4,7] + x[1,2,0,8] <= 1
 move_1_7_04_21: x[1,0,4,7] + x[1,2,1,8] <= 1
 move_1_7_04_22: x[1,0,4,7] + x[1,2,2,8] <= 1
 move_1_7_04_23: x[1,0,4,7] + x[1,2,3,8] <= 1
 move_1_7_04_30: x[1,0,4,7] + x[1,3,0,8] <= 1
 move_1_7_04_31: x[1,0,4,7] + x[1,3,1,8] <= 1
 move_1_7_04_32: x[1,0,4,7] + x[1,3,2,8] <= 1
 move_1_7_04_33: x[1,0,4,7] + x[1,3,3,8] <= 1
 move_1_7_04_34: x[1,0,4,7] + x[1,3,4,8] <= 1
 move_1_7_04_40: x[1,0,4,7] + x[1,4,0,8] <= 1
 move_1_7_04_41: x[1,0,4,7] + x[1,4,1,8] <= 1
 move_1_7_04_42: x[1,0,4,7] + x[1,4,2,8] <= 1
 move_1_7_04_43: x[1,0,4,7] + x[1,4,3,8] <= 1
 move_1_7_04_44: x[1,0,4,7] + x[1,4,4,8] <= 1
 move_1_7_10_02: x[1,0,2,8] + x[1,1,0,7] <= 1
 move_1_7_10_03: x[1,0,3,8] + x[1,1,0,7] <= 1
 move_1_7_10_04: x[1,0,4,8] + x[1,1,0,7] <= 1
 move_1_7_10_13: x[1,1,0,7] + x[1,1,3,8] <= 1
 move_1_7_10_14: x[1,1,0,7] + x[1,1,4,8] <= 1
 move_1_7_10_22: x[1,1,0,7] + x[1,2,2,8] <= 1
 move_1_7_10_23: x[1,1,0,7] + x[1,2,3,8] <= 1
 move_1_7_10_24: x[1,1,0,7] + x[1,2,4,8] <= 1
 move_1_7_10_31: x[1,1,0,7] + x[1,3,1,8] <= 1
 move_1_7_10_32: x[1,1,0,7] + x[1,3,2,8] <= 1
 move_1_7_10_33: x[1,1,0,7] + x[1,3,3,8] <= 1
 move_1_7_10_34: x[1,1,0,7] + x[1,3,4,8] <= 1
 move_1_7_10_40: x[1,1,0,7] + x[1,4,0,8] <= 1
 move_1_7_10_41: x[1,1,0,7] + x[1,4,1,8] <= 1
 move_1_7_10_42: x[1,1,0,7] + x[1,4,2,8] <= 1
 move_1_7_10_43: x[1,1,0,7] + x[1,4,3,8] <= 1
 move_1_7_10_44: x[1,1,0,7] + x[1,4,4,8] <= 1
 move_1_7_11_03: x[1,0,3,8] + x[1,1,1,7] <= 1
 move_1_7_11_04: x[1,0,4,8] + x[1,1,1,7] <= 1
 move_1_7_11_14: x[1,1,1,7] + x[1,1,4,8] <= 1
 move_1_7_11_23: x[1,1,1,7] + x[1,2,3,8] <= 1
 move_1_7_11_24: x[1,1,1,7] + x[1,2,4,8] <= 1
 move_1_7_11_30: x[1,1,1,7] + x[1,3,0,8] <= 1
 move_1_7_11_32: x[1,1,1,7] + x[1,3,2,8] <= 1
 move_1_7_11_33: x[1,1,1,7] + x[1,3,3,8] <= 1
 move_1_7_11_34: x[1,1,1,7] + x[1,3,4,8] <= 1
 move_1_7_11_40: x[1,1,1,7] + x[1,4,0,8] <= 1
 move_1_7_11_41: x[1,1,1,7] + x[1,4,1,8] <= 1
 move_1_7_11_42: x[1,1,1,7] + x[1,4,2,8] <= 1
 move_1_7_11_43: x[1,1,1,7] + x[1,4,3,8] <= 1
 move_1_7_11_44: x[1,1,1,7] + x[1,4,4,8] <= 1
 move_1_7_12_00: x[1,0,0,8] + x[1,1,2,7] <= 1
 move_1_7_12_04: x[1,0,4,8] + x[1,1,2,7] <= 1
 move_1_7_12_20: x[1,1,2,7] + x[1,2,0,8] <= 1
 move_1_7_12_24: x[1,1,2,7] + x[1,2,4,8] <= 1
 move_1_7_12_30: x[1,1,2,7] + x[1,3,0,8] <= 1
 move_1_7_12_31: x[1,1,2,7] + x[1,3,1,8] <= 1
 move_1_7_12_33: x[1,1,2,7] + x[1,3,3,8] <= 1
 move_1_7_12_34: x[1,1,2,7] + x[1,3,4,8] <= 1
 move_1_7_12_40: x[1,1,2,7] + x[1,4,0,8] <= 1
 move_1_7_12_41: x[1,1,2,7] + x[1,4,1,8] <= 1
 move_1_7_12_42: x[1,1,2,7] + x[1,4,2,8] <= 1
 move_1_7_12_43: x[1,1,2,7] + x[1,4,3,8] <= 1
 move_1_7_12_44: x[1,1,2,7] + x[1,4,4,8] <= 1
 move_1_7_13_00: x[1,0,0,8] + x[1,1,3,7] <= 1
 move_1_7_13_01: x[1,0,1,8] + x[1,1,3,7] <= 1
 move_1_7_13_10: x[1,1,0,8] + x[1,1,3,7] <= 1
 move_1_7_13_20: x[1,1,3,7] + x[1,2,0,8] <= 1
 move_1_7_13_21: x[1,1,3,7] + x[1,2,1,8] <= 1
 move_1_7_13_30: x[1,1,3,7] + x[1,3,0,8] <= 1
 move_1_7_13_31: x[1,1,3,7] + x[1,3,1,8] <= 1
 move_1_7_13_32: x[1,1,3,7] + x[1,3,2,8] <= 1
 move_1_7_13_34: x[1,1,3,7] + x[1,3,4,8] <= 1
 move_1_7_13_40: x[1,1,3,7] + x[1,4,0,8] <= 1
 move_1_7_13_41: x[1,1,3,7] + x[1,4,1,8] <= 1
 move_1_7_13_42: x[1,1,3,7] + x[1,4,2,8] <= 1
 move_1_7_13_43: x[1,1,3,7] + x[1,4,3,8] <= 1
 move_1_7_13_44: x[1,1,3,7] + x[1,4,4,8] <= 1
 move_1_7_14_00: x[1,0,0,8] + x[1,1,4,7] <= 1
 move_1_7_14_01: x[1,0,1,8] + x[1,1,4,7] <= 1
 move_1_7_14_02: x[1,0,2,8] + x[1,1,4,7] <= 1
 move_1_7_14_10: x[1,1,0,8] + x[1,1,4,7] <= 1
 move_1_7_14_11: x[1,1,1,8] + x[1,1,4,7] <= 1
 move_1_7_14_20: x[1,1,4,7] + x[1,2,0,8] <= 1
 move_1_7_14_21: x[1,1,4,7] + x[1,2,1,8] <= 1
 move_1_7_14_22: x[1,1,4,7] + x[1,2,2,8] <= 1
 move_1_7_14_30: x[1,1,4,7] + x[1,3,0,8] <= 1
 move_1_7_14_31: x[1,1,4,7] + x[1,3,1,8] <= 1
 move_1_7_14_32: x[1,1,4,7] + x[1,3,2,8] <= 1
 move_1_7_14_33: x[1,1,4,7] + x[1,3,3,8] <= 1
 move_1_7_14_40: x[1,1,4,7] + x[1,4,0,8] <= 1
 move_1_7_14_41: x[1,1,4,7] + x[1,4,1,8] <= 1
 move_1_7_14_42: x[1,1,4,7] + x[1,4,2,8] <= 1
 move_1_7_14_43: x[1,1,4,7] + x[1,4,3,8] <= 1
 move_1_7_14_44: x[1,1,4,7] + x[1,4,4,8] <= 1
 move_1_7_20_01: x[1,0,1,8] + x[1,2,0,7] <= 1
 move_1_7_20_02: x[1,0,2,8] + x[1,2,0,7] <= 1
 move_1_7_20_03: x[1,0,3,8] + x[1,2,0,7] <= 1
 move_1_7_20_04: x[1,0,4,8] + x[1,2,0,7] <= 1
 move_1_7_20_12: x[1,1,2,8] + x[1,2,0,7] <= 1
 move_1_7_20_13: x[1,1,3,8] + x[1,2,0,7] <= 1
 move_1_7_20_14: x[1,1,4,8] + x[1,2,0,7] <= 1
 move_1_7_20_23: x[1,2,0,7] + x[1,2,3,8] <= 1
 move_1_7_20_24: x[1,2,0,7] + x[1,2,4,8] <= 1
 move_1_7_20_32: x[1,2,0,7] + x[1,3,2,8] <= 1
 move_1_7_20_33: x[1,2,0,7] + x[1,3,3,8] <= 1
 move_1_7_20_34: x[1,2,0,7] + x[1,3,4,8] <= 1
 move_1_7_20_41: x[1,2,0,7] + x[1,4,1,8] <= 1
 move_1_7_20_42: x[1,2,0,7] + x[1,4,2,8] <= 1
 move_1_7_20_43: x[1,2,0,7] + x[1,4,3,8] <= 1
 move_1_7_20_44: x[1,2,0,7] + x[1,4,4,8] <= 1
 move_1_7_21_00: x[1,0,0,8] + x[1,2,1,7] <= 1
 move_1_7_21_02: x[1,0,2,8] + x[1,2,1,7] <= 1
 move_1_7_21_03: x[1,0,3,8] + x[1,2,1,7] <= 1
 move_1_7_21_04: x[1,0,4,8] + x[1,2,1,7] <= 1
 move_1_7_21_13: x[1,1,3,8] + x[1,2,1,7] <= 1
 move_1_7_21_14: x[1,1,4,8] + x[1,2,1,7] <= 1
 move_1_7_21_24: x[1,2,1,7] + x[1,2,4,8] <= 1
 move_1_7_21_33: x[1,2,1,7] + x[1,3,3,8] <= 1
 move_1_7_21_34: x[1,2,1,7] + x[1,3,4,8] <= 1
 move_1_7_21_40: x[1,2,1,7] + x[1,4,0,8] <= 1
 move_1_7_21_42: x[1,2,1,7] + x[1,4,2,8] <= 1
 move_1_7_21_43: x[1,2,1,7] + x[1,4,3,8] <= 1
 move_1_7_21_44: x[1,2,1,7] + x[1,4,4,8] <= 1
 move_1_7_22_00: x[1,0,0,8] + x[1,2,2,7] <= 1
 move_1_7_22_01: x[1,0,1,8] + x[1,2,2,7] <= 1
 move_1_7_22_03: x[1,0,3,8] + x[1,2,2,7] <= 1
 move_1_7_22_04: x[1,0,4,8] + x[1,2,2,7] <= 1
 move_1_7_22_10: x[1,1,0,8] + x[1,2,2,7] <= 1
 move_1_7_22_14: x[1,1,4,8] + x[1,2,2,7] <= 1
 move_1_7_22_30: x[1,2,2,7] + x[1,3,0,8] <= 1
 move_1_7_22_34: x[1,2,2,7] + x[1,3,4,8] <= 1
 move_1_7_22_40: x[1,2,2,7] + x[1,4,0,8] <= 1
 move_1_7_22_41: x[1,2,2,7] + x[1,4,1,8] <= 1
 move_1_7_22_43: x[1,2,2,7] + x[1,4,3,8] <= 1
 move_1_7_22_44: x[1,2,2,7] + x[1,4,4,8] <= 1
 move_1_7_23_00: x[1,0,0,8] + x[1,2,3,7] <= 1
 move_1_7_23_01: x[1,0,1,8] + x[1,2,3,7] <= 1
 move_1_7_23_02: x[1,0,2,8] + x[1,2,3,7] <= 1
 move_1_7_23_04: x[1,0,4,8] + x[1,2,3,7] <= 1
 move_1_7_23_10: x[1,1,0,8] + x[1,2,3,7] <= 1
 move_1_7_23_11: x[1,1,1,8] + x[1,2,3,7] <= 1
 move_1_7_23_20: x[1,2,0,8] + x[1,2,3,7] <= 1
 move_1_7_23_30: x[1,2,3,7] + x[1,3,0,8] <= 1
 move_1_7_23_31: x[1,2,3,7] + x[1,3,1,8] <= 1
 move_1_7_23_40: x[1,2,3,7] + x[1,4,0,8] <= 1
 move_1_7_23_41: x[1,2,3,7] + x[1,4,1,8] <= 1
 move_1_7_23_42: x[1,2,3,7] + x[1,4,2,8] <= 1
 move_1_7_23_44: x[1,2,3,7] + x[1,4,4,8] <= 1
 move_1_7_24_00: x[1,0,0,8] + x[1,2,4,7] <= 1
 move_1_7_24_01: x[1,0,1,8] + x[1,2,4,7] <= 1
 move_1_7_24_02: x[1,0,2,8] + x[1,2,4,7] <= 1
 move_1_7_24_03: x[1,0,3,8] + x[1,2,4,7] <= 1
 move_1_7_24_10: x[1,1,0,8] + x[1,2,4,7] <= 1
 move_1_7_24_11: x[1,1,1,8] + x[1,2,4,7] <= 1
 move_1_7_24_12: x[1,1,2,8] + x[1,2,4,7] <= 1
 move_1_7_24_20: x[1,2,0,8] + x[1,2,4,7] <= 1
 move_1_7_24_21: x[1,2,1,8] + x[1,2,4,7] <= 1
 move_1_7_24_30: x[1,2,4,7] + x[1,3,0,8] <= 1
 move_1_7_24_31: x[1,2,4,7] + x[1,3,1,8] <= 1
 move_1_7_24_32: x[1,2,4,7] + x[1,3,2,8] <= 1
 move_1_7_24_40: x[1,2,4,7] + x[1,4,0,8] <= 1
 move_1_7_24_41: x[1,2,4,7] + x[1,4,1,8] <= 1
 move_1_7_24_42: x[1,2,4,7] + x[1,4,2,8] <= 1
 move_1_7_24_43: x[1,2,4,7] + x[1,4,3,8] <= 1
 move_1_7_30_00: x[1,0,0,8] + x[1,3,0,7] <= 1
 move_1_7_30_01: x[1,0,1,8] + x[1,3,0,7] <= 1
 move_1_7_30_02: x[1,0,2,8] + x[1,3,0,7] <= 1
 move_1_7_30_03: x[1,0,3,8] + x[1,3,0,7] <= 1
 move_1_7_30_04: x[1,0,4,8] + x[1,3,0,7] <= 1
 move_1_7_30_11: x[1,1,1,8] + x[1,3,0,7] <= 1
 move_1_7_30_12: x[1,1,2,8] + x[1,3,0,7] <= 1
 move_1_7_30_13: x[1,1,3,8] + x[1,3,0,7] <= 1
 move_1_7_30_14: x[1,1,4,8] + x[1,3,0,7] <= 1
 move_1_7_30_22: x[1,2,2,8] + x[1,3,0,7] <= 1
 move_1_7_30_23: x[1,2,3,8] + x[1,3,0,7] <= 1
 move_1_7_30_24: x[1,2,4,8] + x[1,3,0,7] <= 1
 move_1_7_30_33: x[1,3,0,7] + x[1,3,3,8] <= 1
 move_1_7_30_34: x[1,3,0,7] + x[1,3,4,8] <= 1
 move_1_7_30_42: x[1,3,0,7] + x[1,4,2,8] <= 1
 move_1_7_30_43: x[1,3,0,7] + x[1,4,3,8] <= 1
 move_1_7_30_44: x[1,3,0,7] + x[1,4,4,8] <= 1
 move_1_7_31_00: x[1,0,0,8] + x[1,3,1,7] <= 1
 move_1_7_31_01: x[1,0,1,8] + x[1,3,1,7] <= 1
 move_1_7_31_02: x[1,0,2,8] + x[1,3,1,7] <= 1
 move_1_7_31_03: x[1,0,3,8] + x[1,3,1,7] <= 1
 move_1_7_31_04: x[1,0,4,8] + x[1,3,1,7] <= 1
 move_1_7_31_10: x[1,1,0,8] + x[1,3,1,7] <= 1
 move_1_7_31_12: x[1,1,2,8] + x[1,3,1,7] <= 1
 move_1_7_31_13: x[1,1,3,8] + x[1,3,1,7] <= 1
 move_1_7_31_14: x[1,1,4,8] + x[1,3,1,7] <= 1
 move_1_7_31_23: x[1,2,3,8] + x[1,3,1,7] <= 1
 move_1_7_31_24: x[1,2,4,8] + x[1,3,1,7] <= 1
 move_1_7_31_34: x[1,3,1,7] + x[1,3,4,8] <= 1
 move_1_7_31_43: x[1,3,1,7] + x[1,4,3,8] <= 1
 move_1_7_31_44: x[1,3,1,7] + x[1,4,4,8] <= 1
 move_1_7_32_00: x[1,0,0,8] + x[1,3,2,7] <= 1
 move_1_7_32_01: x[1,0,1,8] + x[1,3,2,7] <= 1
 move_1_7_32_02: x[1,0,2,8] + x[1,3,2,7] <= 1
 move_1_7_32_03: x[1,0,3,8] + x[1,3,2,7] <= 1
 move_1_7_32_04: x[1,0,4,8] + x[1,3,2,7] <= 1
 move_1_7_32_10: x[1,1,0,8] + x[1,3,2,7] <= 1
 move_1_7_32_11: x[1,1,1,8] + x[1,3,2,7] <= 1
 move_1_7_32_13: x[1,1,3,8] + x[1,3,2,7] <= 1
 move_1_7_32_14: x[1,1,4,8] + x[1,3,2,7] <= 1
 move_1_7_32_20: x[1,2,0,8] + x[1,3,2,7] <= 1
 move_1_7_32_24: x[1,2,4,8] + x[1,3,2,7] <= 1
 move_1_7_32_40: x[1,3,2,7] + x[1,4,0,8] <= 1
 move_1_7_32_44: x[1,3,2,7] + x[1,4,4,8] <= 1
 move_1_7_33_00: x[1,0,0,8] + x[1,3,3,7] <= 1
 move_1_7_33_01: x[1,0,1,8] + x[1,3,3,7] <= 1
 move_1_7_33_02: x[1,0,2,8] + x[1,3,3,7] <= 1
 move_1_7_33_03: x[1,0,3,8] + x[1,3,3,7] <= 1
 move_1_7_33_04: x[1,0,4,8] + x[1,3,3,7] <= 1
 move_1_7_33_10: x[1,1,0,8] + x[1,3,3,7] <= 1
 move_1_7_33_11: x[1,1,1,8] + x[1,3,3,7] <= 1
 move_1_7_33_12: x[1,1,2,8] + x[1,3,3,7] <= 1
 move_1_7_33_14: x[1,1,4,8] + x[1,3,3,7] <= 1
 move_1_7_33_20: x[1,2,0,8] + x[1,3,3,7] <= 1
 move_1_7_33_21: x[1,2,1,8] + x[1,3,3,7] <= 1
 move_1_7_33_30: x[1,3,0,8] + x[1,3,3,7] <= 1
 move_1_7_33_40: x[1,3,3,7] + x[1,4,0,8] <= 1
 move_1_7_33_41: x[1,3,3,7] + x[1,4,1,8] <= 1
 move_1_7_34_00: x[1,0,0,8] + x[1,3,4,7] <= 1
 move_1_7_34_01: x[1,0,1,8] + x[1,3,4,7] <= 1
 move_1_7_34_02: x[1,0,2,8] + x[1,3,4,7] <= 1
 move_1_7_34_03: x[1,0,3,8] + x[1,3,4,7] <= 1
 move_1_7_34_04: x[1,0,4,8] + x[1,3,4,7] <= 1
 move_1_7_34_10: x[1,1,0,8] + x[1,3,4,7] <= 1
 move_1_7_34_11: x[1,1,1,8] + x[1,3,4,7] <= 1
 move_1_7_34_12: x[1,1,2,8] + x[1,3,4,7] <= 1
 move_1_7_34_13: x[1,1,3,8] + x[1,3,4,7] <= 1
 move_1_7_34_20: x[1,2,0,8] + x[1,3,4,7] <= 1
 move_1_7_34_21: x[1,2,1,8] + x[1,3,4,7] <= 1
 move_1_7_34_22: x[1,2,2,8] + x[1,3,4,7] <= 1
 move_1_7_34_30: x[1,3,0,8] + x[1,3,4,7] <= 1
 move_1_7_34_31: x[1,3,1,8] + x[1,3,4,7] <= 1
 move_1_7_34_40: x[1,3,4,7] + x[1,4,0,8] <= 1
 move_1_7_34_41: x[1,3,4,7] + x[1,4,1,8] <= 1
 move_1_7_34_42: x[1,3,4,7] + x[1,4,2,8] <= 1
 move_1_7_40_00: x[1,0,0,8] + x[1,4,0,7] <= 1
 move_1_7_40_01: x[1,0,1,8] + x[1,4,0,7] <= 1
 move_1_7_40_02: x[1,0,2,8] + x[1,4,0,7] <= 1
 move_1_7_40_03: x[1,0,3,8] + x[1,4,0,7] <= 1
 move_1_7_40_04: x[1,0,4,8] + x[1,4,0,7] <= 1
 move_1_7_40_10: x[1,1,0,8] + x[1,4,0,7] <= 1
 move_1_7_40_11: x[1,1,1,8] + x[1,4,0,7] <= 1
 move_1_7_40_12: x[1,1,2,8] + x[1,4,0,7] <= 1
 move_1_7_40_13: x[1,1,3,8] + x[1,4,0,7] <= 1
 move_1_7_40_14: x[1,1,4,8] + x[1,4,0,7] <= 1
 move_1_7_40_21: x[1,2,1,8] + x[1,4,0,7] <= 1
 move_1_7_40_22: x[1,2,2,8] + x[1,4,0,7] <= 1
 move_1_7_40_23: x[1,2,3,8] + x[1,4,0,7] <= 1
 move_1_7_40_24: x[1,2,4,8] + x[1,4,0,7] <= 1
 move_1_7_40_32: x[1,3,2,8] + x[1,4,0,7] <= 1
 move_1_7_40_33: x[1,3,3,8] + x[1,4,0,7] <= 1
 move_1_7_40_34: x[1,3,4,8] + x[1,4,0,7] <= 1
 move_1_7_40_43: x[1,4,0,7] + x[1,4,3,8] <= 1
 move_1_7_40_44: x[1,4,0,7] + x[1,4,4,8] <= 1
 move_1_7_41_00: x[1,0,0,8] + x[1,4,1,7] <= 1
 move_1_7_41_01: x[1,0,1,8] + x[1,4,1,7] <= 1
 move_1_7_41_02: x[1,0,2,8] + x[1,4,1,7] <= 1
 move_1_7_41_03: x[1,0,3,8] + x[1,4,1,7] <= 1
 move_1_7_41_04: x[1,0,4,8] + x[1,4,1,7] <= 1
 move_1_7_41_10: x[1,1,0,8] + x[1,4,1,7] <= 1
 move_1_7_41_11: x[1,1,1,8] + x[1,4,1,7] <= 1
 move_1_7_41_12: x[1,1,2,8] + x[1,4,1,7] <= 1
 move_1_7_41_13: x[1,1,3,8] + x[1,4,1,7] <= 1
 move_1_7_41_14: x[1,1,4,8] + x[1,4,1,7] <= 1
 move_1_7_41_20: x[1,2,0,8] + x[1,4,1,7] <= 1
 move_1_7_41_22: x[1,2,2,8] + x[1,4,1,7] <= 1
 move_1_7_41_23: x[1,2,3,8] + x[1,4,1,7] <= 1
 move_1_7_41_24: x[1,2,4,8] + x[1,4,1,7] <= 1
 move_1_7_41_33: x[1,3,3,8] + x[1,4,1,7] <= 1
 move_1_7_41_34: x[1,3,4,8] + x[1,4,1,7] <= 1
 move_1_7_41_44: x[1,4,1,7] + x[1,4,4,8] <= 1
 move_1_7_42_00: x[1,0,0,8] + x[1,4,2,7] <= 1
 move_1_7_42_01: x[1,0,1,8] + x[1,4,2,7] <= 1
 move_1_7_42_02: x[1,0,2,8] + x[1,4,2,7] <= 1
 move_1_7_42_03: x[1,0,3,8] + x[1,4,2,7] <= 1
 move_1_7_42_04: x[1,0,4,8] + x[1,4,2,7] <= 1
 move_1_7_42_10: x[1,1,0,8] + x[1,4,2,7] <= 1
 move_1_7_42_11: x[1,1,1,8] + x[1,4,2,7] <= 1
 move_1_7_42_12: x[1,1,2,8] + x[1,4,2,7] <= 1
 move_1_7_42_13: x[1,1,3,8] + x[1,4,2,7] <= 1
 move_1_7_42_14: x[1,1,4,8] + x[1,4,2,7] <= 1
 move_1_7_42_20: x[1,2,0,8] + x[1,4,2,7] <= 1
 move_1_7_42_21: x[1,2,1,8] + x[1,4,2,7] <= 1
 move_1_7_42_23: x[1,2,3,8] + x[1,4,2,7] <= 1
 move_1_7_42_24: x[1,2,4,8] + x[1,4,2,7] <= 1
 move_1_7_42_30: x[1,3,0,8] + x[1,4,2,7] <= 1
 move_1_7_42_34: x[1,3,4,8] + x[1,4,2,7] <= 1
 move_1_7_43_00: x[1,0,0,8] + x[1,4,3,7] <= 1
 move_1_7_43_01: x[1,0,1,8] + x[1,4,3,7] <= 1
 move_1_7_43_02: x[1,0,2,8] + x[1,4,3,7] <= 1
 move_1_7_43_03: x[1,0,3,8] + x[1,4,3,7] <= 1
 move_1_7_43_04: x[1,0,4,8] + x[1,4,3,7] <= 1
 move_1_7_43_10: x[1,1,0,8] + x[1,4,3,7] <= 1
 move_1_7_43_11: x[1,1,1,8] + x[1,4,3,7] <= 1
 move_1_7_43_12: x[1,1,2,8] + x[1,4,3,7] <= 1
 move_1_7_43_13: x[1,1,3,8] + x[1,4,3,7] <= 1
 move_1_7_43_14: x[1,1,4,8] + x[1,4,3,7] <= 1
 move_1_7_43_20: x[1,2,0,8] + x[1,4,3,7] <= 1
 move_1_7_43_21: x[1,2,1,8] + x[1,4,3,7] <= 1
 move_1_7_43_22: x[1,2,2,8] + x[1,4,3,7] <= 1
 move_1_7_43_24: x[1,2,4,8] + x[1,4,3,7] <= 1
 move_1_7_43_30: x[1,3,0,8] + x[1,4,3,7] <= 1
 move_1_7_43_31: x[1,3,1,8] + x[1,4,3,7] <= 1
 move_1_7_43_40: x[1,4,0,8] + x[1,4,3,7] <= 1
 move_1_7_44_00: x[1,0,0,8] + x[1,4,4,7] <= 1
 move_1_7_44_01: x[1,0,1,8] + x[1,4,4,7] <= 1
 move_1_7_44_02: x[1,0,2,8] + x[1,4,4,7] <= 1
 move_1_7_44_03: x[1,0,3,8] + x[1,4,4,7] <= 1
 move_1_7_44_04: x[1,0,4,8] + x[1,4,4,7] <= 1
 move_1_7_44_10: x[1,1,0,8] + x[1,4,4,7] <= 1
 move_1_7_44_11: x[1,1,1,8] + x[1,4,4,7] <= 1
 move_1_7_44_12: x[1,1,2,8] + x[1,4,4,7] <= 1
 move_1_7_44_13: x[1,1,3,8] + x[1,4,4,7] <= 1
 move_1_7_44_14: x[1,1,4,8] + x[1,4,4,7] <= 1
 move_1_7_44_20: x[1,2,0,8] + x[1,4,4,7] <= 1
 move_1_7_44_21: x[1,2,1,8] + x[1,4,4,7] <= 1
 move_1_7_44_22: x[1,2,2,8] + x[1,4,4,7] <= 1
 move_1_7_44_23: x[1,2,3,8] + x[1,4,4,7] <= 1
 move_1_7_44_30: x[1,3,0,8] + x[1,4,4,7] <= 1
 move_1_7_44_31: x[1,3,1,8] + x[1,4,4,7] <= 1
 move_1_7_44_32: x[1,3,2,8] + x[1,4,4,7] <= 1
 move_1_7_44_40: x[1,4,0,8] + x[1,4,4,7] <= 1
 move_1_7_44_41: x[1,4,1,8] + x[1,4,4,7] <= 1
 move_1_8_00_03: x[1,0,0,8] + x[1,0,3,9] <= 1
 move_1_8_00_04: x[1,0,0,8] + x[1,0,4,9] <= 1
 move_1_8_00_12: x[1,0,0,8] + x[1,1,2,9] <= 1
 move_1_8_00_13: x[1,0,0,8] + x[1,1,3,9] <= 1
 move_1_8_00_14: x[1,0,0,8] + x[1,1,4,9] <= 1
 move_1_8_00_21: x[1,0,0,8] + x[1,2,1,9] <= 1
 move_1_8_00_22: x[1,0,0,8] + x[1,2,2,9] <= 1
 move_1_8_00_23: x[1,0,0,8] + x[1,2,3,9] <= 1
 move_1_8_00_24: x[1,0,0,8] + x[1,2,4,9] <= 1
 move_1_8_00_30: x[1,0,0,8] + x[1,3,0,9] <= 1
 move_1_8_00_31: x[1,0,0,8] + x[1,3,1,9] <= 1
 move_1_8_00_32: x[1,0,0,8] + x[1,3,2,9] <= 1
 move_1_8_00_33: x[1,0,0,8] + x[1,3,3,9] <= 1
 move_1_8_00_34: x[1,0,0,8] + x[1,3,4,9] <= 1
 move_1_8_00_40: x[1,0,0,8] + x[1,4,0,9] <= 1
 move_1_8_00_41: x[1,0,0,8] + x[1,4,1,9] <= 1
 move_1_8_00_42: x[1,0,0,8] + x[1,4,2,9] <= 1
 move_1_8_00_43: x[1,0,0,8] + x[1,4,3,9] <= 1
 move_1_8_00_44: x[1,0,0,8] + x[1,4,4,9] <= 1
 move_1_8_01_04: x[1,0,1,8] + x[1,0,4,9] <= 1
 move_1_8_01_13: x[1,0,1,8] + x[1,1,3,9] <= 1
 move_1_8_01_14: x[1,0,1,8] + x[1,1,4,9] <= 1
 move_1_8_01_20: x[1,0,1,8] + x[1,2,0,9] <= 1
 move_1_8_01_22: x[1,0,1,8] + x[1,2,2,9] <= 1
 move_1_8_01_23: x[1,0,1,8] + x[1,2,3,9] <= 1
 move_1_8_01_24: x[1,0,1,8] + x[1,2,4,9] <= 1
 move_1_8_01_30: x[1,0,1,8] + x[1,3,0,9] <= 1
 move_1_8_01_31: x[1,0,1,8] + x[1,3,1,9] <= 1
 move_1_8_01_32: x[1,0,1,8] + x[1,3,2,9] <= 1
 move_1_8_01_33: x[1,0,1,8] + x[1,3,3,9] <= 1
 move_1_8_01_34: x[1,0,1,8] + x[1,3,4,9] <= 1
 move_1_8_01_40: x[1,0,1,8] + x[1,4,0,9] <= 1
 move_1_8_01_41: x[1,0,1,8] + x[1,4,1,9] <= 1
 move_1_8_01_42: x[1,0,1,8] + x[1,4,2,9] <= 1
 move_1_8_01_43: x[1,0,1,8] + x[1,4,3,9] <= 1
 move_1_8_01_44: x[1,0,1,8] + x[1,4,4,9] <= 1
 move_1_8_02_10: x[1,0,2,8] + x[1,1,0,9] <= 1
 move_1_8_02_14: x[1,0,2,8] + x[1,1,4,9] <= 1
 move_1_8_02_20: x[1,0,2,8] + x[1,2,0,9] <= 1
 move_1_8_02_21: x[1,0,2,8] + x[1,2,1,9] <= 1
 move_1_8_02_23: x[1,0,2,8] + x[1,2,3,9] <= 1
 move_1_8_02_24: x[1,0,2,8] + x[1,2,4,9] <= 1
 move_1_8_02_30: x[1,0,2,8] + x[1,3,0,9] <= 1
 move_1_8_02_31: x[1,0,2,8] + x[1,3,1,9] <= 1
 move_1_8_02_32: x[1,0,2,8] + x[1,3,2,9] <= 1
 move_1_8_02_33: x[1,0,2,8] + x[1,3,3,9] <= 1
 move_1_8_02_34: x[1,0,2,8] + x[1,3,4,9] <= 1
 move_1_8_02_40: x[1,0,2,8] + x[1,4,0,9] <= 1
 move_1_8_02_41: x[1,0,2,8] + x[1,4,1,9] <= 1
 move_1_8_02_42: x[1,0,2,8] + x[1,4,2,9] <= 1
 move_1_8_02_43: x[1,0,2,8] + x[1,4,3,9] <= 1
 move_1_8_02_44: x[1,0,2,8] + x[1,4,4,9] <= 1
 move_1_8_03_00: x[1,0,0,9] + x[1,0,3,8] <= 1
 move_1_8_03_10: x[1,0,3,8] + x[1,1,0,9] <= 1
 move_1_8_03_11: x[1,0,3,8] + x[1,1,1,9] <= 1
 move_1_8_03_20: x[1,0,3,8] + x[1,2,0,9] <= 1
 move_1_8_03_21: x[1,0,3,8] + x[1,2,1,9] <= 1
 move_1_8_03_22: x[1,0,3,8] + x[1,2,2,9] <= 1
 move_1_8_03_24: x[1,0,3,8] + x[1,2,4,9] <= 1
 move_1_8_03_30: x[1,0,3,8] + x[1,3,0,9] <= 1
 move_1_8_03_31: x[1,0,3,8] + x[1,3,1,9] <= 1
 move_1_8_03_32: x[1,0,3,8] + x[1,3,2,9] <= 1
 move_1_8_03_33: x[1,0,3,8] + x[1,3,3,9] <= 1
 move_1_8_03_34: x[1,0,3,8] + x[1,3,4,9] <= 1
 move_1_8_03_40: x[1,0,3,8] + x[1,4,0,9] <= 1
 move_1_8_03_41: x[1,0,3,8] + x[1,4,1,9] <= 1
 move_1_8_03_42: x[1,0,3,8] + x[1,4,2,9] <= 1
 move_1_8_03_43: x[1,0,3,8] + x[1,4,3,9] <= 1
 move_1_8_03_44: x[1,0,3,8] + x[1,4,4,9] <= 1
 move_1_8_04_00: x[1,0,0,9] + x[1,0,4,8] <= 1
 move_1_8_04_01: x[1,0,1,9] + x[1,0,4,8] <= 1
 move_1_8_04_10: x[1,0,4,8] + x[1,1,0,9] <= 1
 move_1_8_04_11: x[1,0,4,8] + x[1,1,1,9] <= 1
 move_1_8_04_12: x[1,0,4,8] + x[1,1,2,9] <= 1
 move_1_8_04_20: x[1,0,4,8] + x[1,2,0,9] <= 1
 move_1_8_04_21: x[1,0,4,8] + x[1,2,1,9] <= 1
 move_1_8_04_22: x[1,0,4,8] + x[1,2,2,9] <= 1
 move_1_8_04_23: x[1,0,4,8] + x[1,2,3,9] <= 1
 move_1_8_04_30: x[1,0,4,8] + x[1,3,0,9] <= 1
 move_1_8_04_31: x[1,0,4,8] + x[1,3,1,9] <= 1
 move_1_8_04_32: x[1,0,4,8] + x[1,3,2,9] <= 1
 move_1_8_04_33: x[1,0,4,8] + x[1,3,3,9] <= 1
 move_1_8_04_34: x[1,0,4,8] + x[1,3,4,9] <= 1
 move_1_8_04_40: x[1,0,4,8] + x[1,4,0,9] <= 1
 move_1_8_04_41: x[1,0,4,8] + x[1,4,1,9] <= 1
 move_1_8_04_42: x[1,0,4,8] + x[1,4,2,9] <= 1
 move_1_8_04_43: x[1,0,4,8] + x[1,4,3,9] <= 1
 move_1_8_04_44: x[1,0,4,8] + x[1,4,4,9] <= 1
 move_1_8_10_02: x[1,0,2,9] + x[1,1,0,8] <= 1
 move_1_8_10_03: x[1,0,3,9] + x[1,1,0,8] <= 1
 move_1_8_10_04: x[1,0,4,9] + x[1,1,0,8] <= 1
 move_1_8_10_13: x[1,1,0,8] + x[1,1,3,9] <= 1
 move_1_8_10_14: x[1,1,0,8] + x[1,1,4,9] <= 1
 move_1_8_10_22: x[1,1,0,8] + x[1,2,2,9] <= 1
 move_1_8_10_23: x[1,1,0,8] + x[1,2,3,9] <= 1
 move_1_8_10_24: x[1,1,0,8] + x[1,2,4,9] <= 1
 move_1_8_10_31: x[1,1,0,8] + x[1,3,1,9] <= 1
 move_1_8_10_32: x[1,1,0,8] + x[1,3,2,9] <= 1
 move_1_8_10_33: x[1,1,0,8] + x[1,3,3,9] <= 1
 move_1_8_10_34: x[1,1,0,8] + x[1,3,4,9] <= 1
 move_1_8_10_40: x[1,1,0,8] + x[1,4,0,9] <= 1
 move_1_8_10_41: x[1,1,0,8] + x[1,4,1,9] <= 1
 move_1_8_10_42: x[1,1,0,8] + x[1,4,2,9] <= 1
 move_1_8_10_43: x[1,1,0,8] + x[1,4,3,9] <= 1
 move_1_8_10_44: x[1,1,0,8] + x[1,4,4,9] <= 1
 move_1_8_11_03: x[1,0,3,9] + x[1,1,1,8] <= 1
 move_1_8_11_04: x[1,0,4,9] + x[1,1,1,8] <= 1
 move_1_8_11_14: x[1,1,1,8] + x[1,1,4,9] <= 1
 move_1_8_11_23: x[1,1,1,8] + x[1,2,3,9] <= 1
 move_1_8_11_24: x[1,1,1,8] + x[1,2,4,9] <= 1
 move_1_8_11_30: x[1,1,1,8] + x[1,3,0,9] <= 1
 move_1_8_11_32: x[1,1,1,8] + x[1,3,2,9] <= 1
 move_1_8_11_33: x[1,1,1,8] + x[1,3,3,9] <= 1
 move_1_8_11_34: x[1,1,1,8] + x[1,3,4,9] <= 1
 move_1_8_11_40: x[1,1,1,8] + x[1,4,0,9] <= 1
 move_1_8_11_41: x[1,1,1,8] + x[1,4,1,9] <= 1
 move_1_8_11_42: x[1,1,1,8] + x[1,4,2,9] <= 1
 move_1_8_11_43: x[1,1,1,8] + x[1,4,3,9] <= 1
 move_1_8_11_44: x[1,1,1,8] + x[1,4,4,9] <= 1
 move_1_8_12_00: x[1,0,0,9] + x[1,1,2,8] <= 1
 move_1_8_12_04: x[1,0,4,9] + x[1,1,2,8] <= 1
 move_1_8_12_20: x[1,1,2,8] + x[1,2,0,9] <= 1
 move_1_8_12_24: x[1,1,2,8] + x[1,2,4,9] <= 1
 move_1_8_12_30: x[1,1,2,8] + x[1,3,0,9] <= 1
 move_1_8_12_31: x[1,1,2,8] + x[1,3,1,9] <= 1
 move_1_8_12_33: x[1,1,2,8] + x[1,3,3,9] <= 1
 move_1_8_12_34: x[1,1,2,8] + x[1,3,4,9] <= 1
 move_1_8_12_40: x[1,1,2,8] + x[1,4,0,9] <= 1
 move_1_8_12_41: x[1,1,2,8] + x[1,4,1,9] <= 1
 move_1_8_12_42: x[1,1,2,8] + x[1,4,2,9] <= 1
 move_1_8_12_43: x[1,1,2,8] + x[1,4,3,9] <= 1
 move_1_8_12_44: x[1,1,2,8] + x[1,4,4,9] <= 1
 move_1_8_13_00: x[1,0,0,9] + x[1,1,3,8] <= 1
 move_1_8_13_01: x[1,0,1,9] + x[1,1,3,8] <= 1
 move_1_8_13_10: x[1,1,0,9] + x[1,1,3,8] <= 1
 move_1_8_13_20: x[1,1,3,8] + x[1,2,0,9] <= 1
 move_1_8_13_21: x[1,1,3,8] + x[1,2,1,9] <= 1
 move_1_8_13_30: x[1,1,3,8] + x[1,3,0,9] <= 1
 move_1_8_13_31: x[1,1,3,8] + x[1,3,1,9] <= 1
 move_1_8_13_32: x[1,1,3,8] + x[1,3,2,9] <= 1
 move_1_8_13_34: x[1,1,3,8] + x[1,3,4,9] <= 1
 move_1_8_13_40: x[1,1,3,8] + x[1,4,0,9] <= 1
 move_1_8_13_41: x[1,1,3,8] + x[1,4,1,9] <= 1
 move_1_8_13_42: x[1,1,3,8] + x[1,4,2,9] <= 1
 move_1_8_13_43: x[1,1,3,8] + x[1,4,3,9] <= 1
 move_1_8_13_44: x[1,1,3,8] + x[1,4,4,9] <= 1
 move_1_8_14_00: x[1,0,0,9] + x[1,1,4,8] <= 1
 move_1_8_14_01: x[1,0,1,9] + x[1,1,4,8] <= 1
 move_1_8_14_02: x[1,0,2,9] + x[1,1,4,8] <= 1
 move_1_8_14_10: x[1,1,0,9] + x[1,1,4,8] <= 1
 move_1_8_14_11: x[1,1,1,9] + x[1,1,4,8] <= 1
 move_1_8_14_20: x[1,1,4,8] + x[1,2,0,9] <= 1
 move_1_8_14_21: x[1,1,4,8] + x[1,2,1,9] <= 1
 move_1_8_14_22: x[1,1,4,8] + x[1,2,2,9] <= 1
 move_1_8_14_30: x[1,1,4,8] + x[1,3,0,9] <= 1
 move_1_8_14_31: x[1,1,4,8] + x[1,3,1,9] <= 1
 move_1_8_14_32: x[1,1,4,8] + x[1,3,2,9] <= 1
 move_1_8_14_33: x[1,1,4,8] + x[1,3,3,9] <= 1
 move_1_8_14_40: x[1,1,4,8] + x[1,4,0,9] <= 1
 move_1_8_14_41: x[1,1,4,8] + x[1,4,1,9] <= 1
 move_1_8_14_42: x[1,1,4,8] + x[1,4,2,9] <= 1
 move_1_8_14_43: x[1,1,4,8] + x[1,4,3,9] <= 1
 move_1_8_14_44: x[1,1,4,8] + x[1,4,4,9] <= 1
 move_1_8_20_01: x[1,0,1,9] + x[1,2,0,8] <= 1
 move_1_8_20_02: x[1,0,2,9] + x[1,2,0,8] <= 1
 move_1_8_20_03: x[1,0,3,9] + x[1,2,0,8] <= 1
 move_1_8_20_04: x[1,0,4,9] + x[1,2,0,8] <= 1
 move_1_8_20_12: x[1,1,2,9] + x[1,2,0,8] <= 1
 move_1_8_20_13: x[1,1,3,9] + x[1,2,0,8] <= 1
 move_1_8_20_14: x[1,1,4,9] + x[1,2,0,8] <= 1
 move_1_8_20_23: x[1,2,0,8] + x[1,2,3,9] <= 1
 move_1_8_20_24: x[1,2,0,8] + x[1,2,4,9] <= 1
 move_1_8_20_32: x[1,2,0,8] + x[1,3,2,9] <= 1
 move_1_8_20_33: x[1,2,0,8] + x[1,3,3,9] <= 1
 move_1_8_20_34: x[1,2,0,8] + x[1,3,4,9] <= 1
 move_1_8_20_41: x[1,2,0,8] + x[1,4,1,9] <= 1
 move_1_8_20_42: x[1,2,0,8] + x[1,4,2,9] <= 1
 move_1_8_20_43: x[1,2,0,8] + x[1,4,3,9] <= 1
 move_1_8_20_44: x[1,2,0,8] + x[1,4,4,9] <= 1
 move_1_8_21_00: x[1,0,0,9] + x[1,2,1,8] <= 1
 move_1_8_21_02: x[1,0,2,9] + x[1,2,1,8] <= 1
 move_1_8_21_03: x[1,0,3,9] + x[1,2,1,8] <= 1
 move_1_8_21_04: x[1,0,4,9] + x[1,2,1,8] <= 1
 move_1_8_21_13: x[1,1,3,9] + x[1,2,1,8] <= 1
 move_1_8_21_14: x[1,1,4,9] + x[1,2,1,8] <= 1
 move_1_8_21_24: x[1,2,1,8] + x[1,2,4,9] <= 1
 move_1_8_21_33: x[1,2,1,8] + x[1,3,3,9] <= 1
 move_1_8_21_34: x[1,2,1,8] + x[1,3,4,9] <= 1
 move_1_8_21_40: x[1,2,1,8] + x[1,4,0,9] <= 1
 move_1_8_21_42: x[1,2,1,8] + x[1,4,2,9] <= 1
 move_1_8_21_43: x[1,2,1,8] + x[1,4,3,9] <= 1
 move_1_8_21_44: x[1,2,1,8] + x[1,4,4,9] <= 1
 move_1_8_22_00: x[1,0,0,9] + x[1,2,2,8] <= 1
 move_1_8_22_01: x[1,0,1,9] + x[1,2,2,8] <= 1
 move_1_8_22_03: x[1,0,3,9] + x[1,2,2,8] <= 1
 move_1_8_22_04: x[1,0,4,9] + x[1,2,2,8] <= 1
 move_1_8_22_10: x[1,1,0,9] + x[1,2,2,8] <= 1
 move_1_8_22_14: x[1,1,4,9] + x[1,2,2,8] <= 1
 move_1_8_22_30: x[1,2,2,8] + x[1,3,0,9] <= 1
 move_1_8_22_34: x[1,2,2,8] + x[1,3,4,9] <= 1
 move_1_8_22_40: x[1,2,2,8] + x[1,4,0,9] <= 1
 move_1_8_22_41: x[1,2,2,8] + x[1,4,1,9] <= 1
 move_1_8_22_43: x[1,2,2,8] + x[1,4,3,9] <= 1
 move_1_8_22_44: x[1,2,2,8] + x[1,4,4,9] <= 1
 move_1_8_23_00: x[1,0,0,9] + x[1,2,3,8] <= 1
 move_1_8_23_01: x[1,0,1,9] + x[1,2,3,8] <= 1
 move_1_8_23_02: x[1,0,2,9] + x[1,2,3,8] <= 1
 move_1_8_23_04: x[1,0,4,9] + x[1,2,3,8] <= 1
 move_1_8_23_10: x[1,1,0,9] + x[1,2,3,8] <= 1
 move_1_8_23_11: x[1,1,1,9] + x[1,2,3,8] <= 1
 move_1_8_23_20: x[1,2,0,9] + x[1,2,3,8] <= 1
 move_1_8_23_30: x[1,2,3,8] + x[1,3,0,9] <= 1
 move_1_8_23_31: x[1,2,3,8] + x[1,3,1,9] <= 1
 move_1_8_23_40: x[1,2,3,8] + x[1,4,0,9] <= 1
 move_1_8_23_41: x[1,2,3,8] + x[1,4,1,9] <= 1
 move_1_8_23_42: x[1,2,3,8] + x[1,4,2,9] <= 1
 move_1_8_23_44: x[1,2,3,8] + x[1,4,4,9] <= 1
 move_1_8_24_00: x[1,0,0,9] + x[1,2,4,8] <= 1
 move_1_8_24_01: x[1,0,1,9] + x[1,2,4,8] <= 1
 move_1_8_24_02: x[1,0,2,9] + x[1,2,4,8] <= 1
 move_1_8_24_03: x[1,0,3,9] + x[1,2,4,8] <= 1
 move_1_8_24_10: x[1,1,0,9] + x[1,2,4,8] <= 1
 move_1_8_24_11: x[1,1,1,9] + x[1,2,4,8] <= 1
 move_1_8_24_12: x[1,1,2,9] + x[1,2,4,8] <= 1
 move_1_8_24_20: x[1,2,0,9] + x[1,2,4,8] <= 1
 move_1_8_24_21: x[1,2,1,9] + x[1,2,4,8] <= 1
 move_1_8_24_30: x[1,2,4,8] + x[1,3,0,9] <= 1
 move_1_8_24_31: x[1,2,4,8] + x[1,3,1,9] <= 1
 move_1_8_24_32: x[1,2,4,8] + x[1,3,2,9] <= 1
 move_1_8_24_40: x[1,2,4,8] + x[1,4,0,9] <= 1
 move_1_8_24_41: x[1,2,4,8] + x[1,4,1,9] <= 1
 move_1_8_24_42: x[1,2,4,8] + x[1,4,2,9] <= 1
 move_1_8_24_43: x[1,2,4,8] + x[1,4,3,9] <= 1
 move_1_8_30_00: x[1,0,0,9] + x[1,3,0,8] <= 1
 move_1_8_30_01: x[1,0,1,9] + x[1,3,0,8] <= 1
 move_1_8_30_02: x[1,0,2,9] + x[1,3,0,8] <= 1
 move_1_8_30_03: x[1,0,3,9] + x[1,3,0,8] <= 1
 move_1_8_30_04: x[1,0,4,9] + x[1,3,0,8] <= 1
 move_1_8_30_11: x[1,1,1,9] + x[1,3,0,8] <= 1
 move_1_8_30_12: x[1,1,2,9] + x[1,3,0,8] <= 1
 move_1_8_30_13: x[1,1,3,9] + x[1,3,0,8] <= 1
 move_1_8_30_14: x[1,1,4,9] + x[1,3,0,8] <= 1
 move_1_8_30_22: x[1,2,2,9] + x[1,3,0,8] <= 1
 move_1_8_30_23: x[1,2,3,9] + x[1,3,0,8] <= 1
 move_1_8_30_24: x[1,2,4,9] + x[1,3,0,8] <= 1
 move_1_8_30_33: x[1,3,0,8] + x[1,3,3,9] <= 1
 move_1_8_30_34: x[1,3,0,8] + x[1,3,4,9] <= 1
 move_1_8_30_42: x[1,3,0,8] + x[1,4,2,9] <= 1
 move_1_8_30_43: x[1,3,0,8] + x[1,4,3,9] <= 1
 move_1_8_30_44: x[1,3,0,8] + x[1,4,4,9] <= 1
 move_1_8_31_00: x[1,0,0,9] + x[1,3,1,8] <= 1
 move_1_8_31_01: x[1,0,1,9] + x[1,3,1,8] <= 1
 move_1_8_31_02: x[1,0,2,9] + x[1,3,1,8] <= 1
 move_1_8_31_03: x[1,0,3,9] + x[1,3,1,8] <= 1
 move_1_8_31_04: x[1,0,4,9] + x[1,3,1,8] <= 1
 move_1_8_31_10: x[1,1,0,9] + x[1,3,1,8] <= 1
 move_1_8_31_12: x[1,1,2,9] + x[1,3,1,8] <= 1
 move_1_8_31_13: x[1,1,3,9] + x[1,3,1,8] <= 1
 move_1_8_31_14: x[1,1,4,9] + x[1,3,1,8] <= 1
 move_1_8_31_23: x[1,2,3,9] + x[1,3,1,8] <= 1
 move_1_8_31_24: x[1,2,4,9] + x[1,3,1,8] <= 1
 move_1_8_31_34: x[1,3,1,8] + x[1,3,4,9] <= 1
 move_1_8_31_43: x[1,3,1,8] + x[1,4,3,9] <= 1
 move_1_8_31_44: x[1,3,1,8] + x[1,4,4,9] <= 1
 move_1_8_32_00: x[1,0,0,9] + x[1,3,2,8] <= 1
 move_1_8_32_01: x[1,0,1,9] + x[1,3,2,8] <= 1
 move_1_8_32_02: x[1,0,2,9] + x[1,3,2,8] <= 1
 move_1_8_32_03: x[1,0,3,9] + x[1,3,2,8] <= 1
 move_1_8_32_04: x[1,0,4,9] + x[1,3,2,8] <= 1
 move_1_8_32_10: x[1,1,0,9] + x[1,3,2,8] <= 1
 move_1_8_32_11: x[1,1,1,9] + x[1,3,2,8] <= 1
 move_1_8_32_13: x[1,1,3,9] + x[1,3,2,8] <= 1
 move_1_8_32_14: x[1,1,4,9] + x[1,3,2,8] <= 1
 move_1_8_32_20: x[1,2,0,9] + x[1,3,2,8] <= 1
 move_1_8_32_24: x[1,2,4,9] + x[1,3,2,8] <= 1
 move_1_8_32_40: x[1,3,2,8] + x[1,4,0,9] <= 1
 move_1_8_32_44: x[1,3,2,8] + x[1,4,4,9] <= 1
 move_1_8_33_00: x[1,0,0,9] + x[1,3,3,8] <= 1
 move_1_8_33_01: x[1,0,1,9] + x[1,3,3,8] <= 1
 move_1_8_33_02: x[1,0,2,9] + x[1,3,3,8] <= 1
 move_1_8_33_03: x[1,0,3,9] + x[1,3,3,8] <= 1
 move_1_8_33_04: x[1,0,4,9] + x[1,3,3,8] <= 1
 move_1_8_33_10: x[1,1,0,9] + x[1,3,3,8] <= 1
 move_1_8_33_11: x[1,1,1,9] + x[1,3,3,8] <= 1
 move_1_8_33_12: x[1,1,2,9] + x[1,3,3,8] <= 1
 move_1_8_33_14: x[1,1,4,9] + x[1,3,3,8] <= 1
 move_1_8_33_20: x[1,2,0,9] + x[1,3,3,8] <= 1
 move_1_8_33_21: x[1,2,1,9] + x[1,3,3,8] <= 1
 move_1_8_33_30: x[1,3,0,9] + x[1,3,3,8] <= 1
 move_1_8_33_40: x[1,3,3,8] + x[1,4,0,9] <= 1
 move_1_8_33_41: x[1,3,3,8] + x[1,4,1,9] <= 1
 move_1_8_34_00: x[1,0,0,9] + x[1,3,4,8] <= 1
 move_1_8_34_01: x[1,0,1,9] + x[1,3,4,8] <= 1
 move_1_8_34_02: x[1,0,2,9] + x[1,3,4,8] <= 1
 move_1_8_34_03: x[1,0,3,9] + x[1,3,4,8] <= 1
 move_1_8_34_04: x[1,0,4,9] + x[1,3,4,8] <= 1
 move_1_8_34_10: x[1,1,0,9] + x[1,3,4,8] <= 1
 move_1_8_34_11: x[1,1,1,9] + x[1,3,4,8] <= 1
 move_1_8_34_12: x[1,1,2,9] + x[1,3,4,8] <= 1
 move_1_8_34_13: x[1,1,3,9] + x[1,3,4,8] <= 1
 move_1_8_34_20: x[1,2,0,9] + x[1,3,4,8] <= 1
 move_1_8_34_21: x[1,2,1,9] + x[1,3,4,8] <= 1
 move_1_8_34_22: x[1,2,2,9] + x[1,3,4,8] <= 1
 move_1_8_34_30: x[1,3,0,9] + x[1,3,4,8] <= 1
 move_1_8_34_31: x[1,3,1,9] + x[1,3,4,8] <= 1
 move_1_8_34_40: x[1,3,4,8] + x[1,4,0,9] <= 1
 move_1_8_34_41: x[1,3,4,8] + x[1,4,1,9] <= 1
 move_1_8_34_42: x[1,3,4,8] + x[1,4,2,9] <= 1
 move_1_8_40_00: x[1,0,0,9] + x[1,4,0,8] <= 1
 move_1_8_40_01: x[1,0,1,9] + x[1,4,0,8] <= 1
 move_1_8_40_02: x[1,0,2,9] + x[1,4,0,8] <= 1
 move_1_8_40_03: x[1,0,3,9] + x[1,4,0,8] <= 1
 move_1_8_40_04: x[1,0,4,9] + x[1,4,0,8] <= 1
 move_1_8_40_10: x[1,1,0,9] + x[1,4,0,8] <= 1
 move_1_8_40_11: x[1,1,1,9] + x[1,4,0,8] <= 1
 move_1_8_40_12: x[1,1,2,9] + x[1,4,0,8] <= 1
 move_1_8_40_13: x[1,1,3,9] + x[1,4,0,8] <= 1
 move_1_8_40_14: x[1,1,4,9] + x[1,4,0,8] <= 1
 move_1_8_40_21: x[1,2,1,9] + x[1,4,0,8] <= 1
 move_1_8_40_22: x[1,2,2,9] + x[1,4,0,8] <= 1
 move_1_8_40_23: x[1,2,3,9] + x[1,4,0,8] <= 1
 move_1_8_40_24: x[1,2,4,9] + x[1,4,0,8] <= 1
 move_1_8_40_32: x[1,3,2,9] + x[1,4,0,8] <= 1
 move_1_8_40_33: x[1,3,3,9] + x[1,4,0,8] <= 1
 move_1_8_40_34: x[1,3,4,9] + x[1,4,0,8] <= 1
 move_1_8_40_43: x[1,4,0,8] + x[1,4,3,9] <= 1
 move_1_8_40_44: x[1,4,0,8] + x[1,4,4,9] <= 1
 move_1_8_41_00: x[1,0,0,9] + x[1,4,1,8] <= 1
 move_1_8_41_01: x[1,0,1,9] + x[1,4,1,8] <= 1
 move_1_8_41_02: x[1,0,2,9] + x[1,4,1,8] <= 1
 move_1_8_41_03: x[1,0,3,9] + x[1,4,1,8] <= 1
 move_1_8_41_04: x[1,0,4,9] + x[1,4,1,8] <= 1
 move_1_8_41_10: x[1,1,0,9] + x[1,4,1,8] <= 1
 move_1_8_41_11: x[1,1,1,9] + x[1,4,1,8] <= 1
 move_1_8_41_12: x[1,1,2,9] + x[1,4,1,8] <= 1
 move_1_8_41_13: x[1,1,3,9] + x[1,4,1,8] <= 1
 move_1_8_41_14: x[1,1,4,9] + x[1,4,1,8] <= 1
 move_1_8_41_20: x[1,2,0,9] + x[1,4,1,8] <= 1
 move_1_8_41_22: x[1,2,2,9] + x[1,4,1,8] <= 1
 move_1_8_41_23: x[1,2,3,9] + x[1,4,1,8] <= 1
 move_1_8_41_24: x[1,2,4,9] + x[1,4,1,8] <= 1
 move_1_8_41_33: x[1,3,3,9] + x[1,4,1,8] <= 1
 move_1_8_41_34: x[1,3,4,9] + x[1,4,1,8] <= 1
 move_1_8_41_44: x[1,4,1,8] + x[1,4,4,9] <= 1
 move_1_8_42_00: x[1,0,0,9] + x[1,4,2,8] <= 1
 move_1_8_42_01: x[1,0,1,9] + x[1,4,2,8] <= 1
 move_1_8_42_02: x[1,0,2,9] + x[1,4,2,8] <= 1
 move_1_8_42_03: x[1,0,3,9] + x[1,4,2,8] <= 1
 move_1_8_42_04: x[1,0,4,9] + x[1,4,2,8] <= 1
 move_1_8_42_10: x[1,1,0,9] + x[1,4,2,8] <= 1
 move_1_8_42_11: x[1,1,1,9] + x[1,4,2,8] <= 1
 move_1_8_42_12: x[1,1,2,9] + x[1,4,2,8] <= 1
 move_1_8_42_13: x[1,1,3,9] + x[1,4,2,8] <= 1
 move_1_8_42_14: x[1,1,4,9] + x[1,4,2,8] <= 1
 move_1_8_42_20: x[1,2,0,9] + x[1,4,2,8] <= 1
 move_1_8_42_21: x[1,2,1,9] + x[1,4,2,8] <= 1
 move_1_8_42_23: x[1,2,3,9] + x[1,4,2,8] <= 1
 move_1_8_42_24: x[1,2,4,9] + x[1,4,2,8] <= 1
 move_1_8_42_30: x[1,3,0,9] + x[1,4,2,8] <= 1
 move_1_8_42_34: x[1,3,4,9] + x[1,4,2,8] <= 1
 move_1_8_43_00: x[1,0,0,9] + x[1,4,3,8] <= 1
 move_1_8_43_01: x[1,0,1,9] + x[1,4,3,8] <= 1
 move_1_8_43_02: x[1,0,2,9] + x[1,4,3,8] <= 1
 move_1_8_43_03: x[1,0,3,9] + x[1,4,3,8] <= 1
 move_1_8_43_04: x[1,0,4,9] + x[1,4,3,8] <= 1
 move_1_8_43_10: x[1,1,0,9] + x[1,4,3,8] <= 1
 move_1_8_43_11: x[1,1,1,9] + x[1,4,3,8] <= 1
 move_1_8_43_12: x[1,1,2,9] + x[1,4,3,8] <= 1
 move_1_8_43_13: x[1,1,3,9] + x[1,4,3,8] <= 1
 move_1_8_43_14: x[1,1,4,9] + x[1,4,3,8] <= 1
 move_1_8_43_20: x[1,2,0,9] + x[1,4,3,8] <= 1
 move_1_8_43_21: x[1,2,1,9] + x[1,4,3,8] <= 1
 move_1_8_43_22: x[1,2,2,9] + x[1,4,3,8] <= 1
 move_1_8_43_24: x[1,2,4,9] + x[1,4,3,8] <= 1
 move_1_8_43_30: x[1,3,0,9] + x[1,4,3,8] <= 1
 move_1_8_43_31: x[1,3,1,9] + x[1,4,3,8] <= 1
 move_1_8_43_40: x[1,4,0,9] + x[1,4,3,8] <= 1
 move_1_8_44_00: x[1,0,0,9] + x[1,4,4,8] <= 1
 move_1_8_44_01: x[1,0,1,9] + x[1,4,4,8] <= 1
 move_1_8_44_02: x[1,0,2,9] + x[1,4,4,8] <= 1
 move_1_8_44_03: x[1,0,3,9] + x[1,4,4,8] <= 1
 move_1_8_44_04: x[1,0,4,9] + x[1,4,4,8] <= 1
 move_1_8_44_10: x[1,1,0,9] + x[1,4,4,8] <= 1
 move_1_8_44_11: x[1,1,1,9] + x[1,4,4,8] <= 1
 move_1_8_44_12: x[1,1,2,9] + x[1,4,4,8] <= 1
 move_1_8_44_13: x[1,1,3,9] + x[1,4,4,8] <= 1
 move_1_8_44_14: x[1,1,4,9] + x[1,4,4,8] <= 1
 move_1_8_44_20: x[1,2,0,9] + x[1,4,4,8] <= 1
 move_1_8_44_21: x[1,2,1,9] + x[1,4,4,8] <= 1
 move_1_8_44_22: x[1,2,2,9] + x[1,4,4,8] <= 1
 move_1_8_44_23: x[1,2,3,9] + x[1,4,4,8] <= 1
 move_1_8_44_30: x[1,3,0,9] + x[1,4,4,8] <= 1
 move_1_8_44_31: x[1,3,1,9] + x[1,4,4,8] <= 1
 move_1_8_44_32: x[1,3,2,9] + x[1,4,4,8] <= 1
 move_1_8_44_40: x[1,4,0,9] + x[1,4,4,8] <= 1
 move_1_8_44_41: x[1,4,1,9] + x[1,4,4,8] <= 1
 move_2_0_00_03: x[2,0,0,0] + x[2,0,3,1] <= 1
 move_2_0_00_04: x[2,0,0,0] + x[2,0,4,1] <= 1
 move_2_0_00_12: x[2,0,0,0] + x[2,1,2,1] <= 1
 move_2_0_00_13: x[2,0,0,0] + x[2,1,3,1] <= 1
 move_2_0_00_14: x[2,0,0,0] + x[2,1,4,1] <= 1
 move_2_0_00_21: x[2,0,0,0] + x[2,2,1,1] <= 1
 move_2_0_00_22: x[2,0,0,0] + x[2,2,2,1] <= 1
 move_2_0_00_23: x[2,0,0,0] + x[2,2,3,1] <= 1
 move_2_0_00_24: x[2,0,0,0] + x[2,2,4,1] <= 1
 move_2_0_00_30: x[2,0,0,0] + x[2,3,0,1] <= 1
 move_2_0_00_31: x[2,0,0,0] + x[2,3,1,1] <= 1
 move_2_0_00_32: x[2,0,0,0] + x[2,3,2,1] <= 1
 move_2_0_00_33: x[2,0,0,0] + x[2,3,3,1] <= 1
 move_2_0_00_34: x[2,0,0,0] + x[2,3,4,1] <= 1
 move_2_0_00_40: x[2,0,0,0] + x[2,4,0,1] <= 1
 move_2_0_00_41: x[2,0,0,0] + x[2,4,1,1] <= 1
 move_2_0_00_42: x[2,0,0,0] + x[2,4,2,1] <= 1
 move_2_0_00_43: x[2,0,0,0] + x[2,4,3,1] <= 1
 move_2_0_00_44: x[2,0,0,0] + x[2,4,4,1] <= 1
 move_2_0_01_04: x[2,0,1,0] + x[2,0,4,1] <= 1
 move_2_0_01_13: x[2,0,1,0] + x[2,1,3,1] <= 1
 move_2_0_01_14: x[2,0,1,0] + x[2,1,4,1] <= 1
 move_2_0_01_20: x[2,0,1,0] + x[2,2,0,1] <= 1
 move_2_0_01_22: x[2,0,1,0] + x[2,2,2,1] <= 1
 move_2_0_01_23: x[2,0,1,0] + x[2,2,3,1] <= 1
 move_2_0_01_24: x[2,0,1,0] + x[2,2,4,1] <= 1
 move_2_0_01_30: x[2,0,1,0] + x[2,3,0,1] <= 1
 move_2_0_01_31: x[2,0,1,0] + x[2,3,1,1] <= 1
 move_2_0_01_32: x[2,0,1,0] + x[2,3,2,1] <= 1
 move_2_0_01_33: x[2,0,1,0] + x[2,3,3,1] <= 1
 move_2_0_01_34: x[2,0,1,0] + x[2,3,4,1] <= 1
 move_2_0_01_40: x[2,0,1,0] + x[2,4,0,1] <= 1
 move_2_0_01_41: x[2,0,1,0] + x[2,4,1,1] <= 1
 move_2_0_01_42: x[2,0,1,0] + x[2,4,2,1] <= 1
 move_2_0_01_43: x[2,0,1,0] + x[2,4,3,1] <= 1
 move_2_0_01_44: x[2,0,1,0] + x[2,4,4,1] <= 1
 move_2_0_02_10: x[2,0,2,0] + x[2,1,0,1] <= 1
 move_2_0_02_14: x[2,0,2,0] + x[2,1,4,1] <= 1
 move_2_0_02_20: x[2,0,2,0] + x[2,2,0,1] <= 1
 move_2_0_02_21: x[2,0,2,0] + x[2,2,1,1] <= 1
 move_2_0_02_23: x[2,0,2,0] + x[2,2,3,1] <= 1
 move_2_0_02_24: x[2,0,2,0] + x[2,2,4,1] <= 1
 move_2_0_02_30: x[2,0,2,0] + x[2,3,0,1] <= 1
 move_2_0_02_31: x[2,0,2,0] + x[2,3,1,1] <= 1
 move_2_0_02_32: x[2,0,2,0] + x[2,3,2,1] <= 1
 move_2_0_02_33: x[2,0,2,0] + x[2,3,3,1] <= 1
 move_2_0_02_34: x[2,0,2,0] + x[2,3,4,1] <= 1
 move_2_0_02_40: x[2,0,2,0] + x[2,4,0,1] <= 1
 move_2_0_02_41: x[2,0,2,0] + x[2,4,1,1] <= 1
 move_2_0_02_42: x[2,0,2,0] + x[2,4,2,1] <= 1
 move_2_0_02_43: x[2,0,2,0] + x[2,4,3,1] <= 1
 move_2_0_02_44: x[2,0,2,0] + x[2,4,4,1] <= 1
 move_2_0_03_00: x[2,0,0,1] + x[2,0,3,0] <= 1
 move_2_0_03_10: x[2,0,3,0] + x[2,1,0,1] <= 1
 move_2_0_03_11: x[2,0,3,0] + x[2,1,1,1] <= 1
 move_2_0_03_20: x[2,0,3,0] + x[2,2,0,1] <= 1
 move_2_0_03_21: x[2,0,3,0] + x[2,2,1,1] <= 1
 move_2_0_03_22: x[2,0,3,0] + x[2,2,2,1] <= 1
 move_2_0_03_24: x[2,0,3,0] + x[2,2,4,1] <= 1
 move_2_0_03_30: x[2,0,3,0] + x[2,3,0,1] <= 1
 move_2_0_03_31: x[2,0,3,0] + x[2,3,1,1] <= 1
 move_2_0_03_32: x[2,0,3,0] + x[2,3,2,1] <= 1
 move_2_0_03_33: x[2,0,3,0] + x[2,3,3,1] <= 1
 move_2_0_03_34: x[2,0,3,0] + x[2,3,4,1] <= 1
 move_2_0_03_40: x[2,0,3,0] + x[2,4,0,1] <= 1
 move_2_0_03_41: x[2,0,3,0] + x[2,4,1,1] <= 1
 move_2_0_03_42: x[2,0,3,0] + x[2,4,2,1] <= 1
 move_2_0_03_43: x[2,0,3,0] + x[2,4,3,1] <= 1
 move_2_0_03_44: x[2,0,3,0] + x[2,4,4,1] <= 1
 move_2_0_04_00: x[2,0,0,1] + x[2,0,4,0] <= 1
 move_2_0_04_01: x[2,0,1,1] + x[2,0,4,0] <= 1
 move_2_0_04_10: x[2,0,4,0] + x[2,1,0,1] <= 1
 move_2_0_04_11: x[2,0,4,0] + x[2,1,1,1] <= 1
 move_2_0_04_12: x[2,0,4,0] + x[2,1,2,1] <= 1
 move_2_0_04_20: x[2,0,4,0] + x[2,2,0,1] <= 1
 move_2_0_04_21: x[2,0,4,0] + x[2,2,1,1] <= 1
 move_2_0_04_22: x[2,0,4,0] + x[2,2,2,1] <= 1
 move_2_0_04_23: x[2,0,4,0] + x[2,2,3,1] <= 1
 move_2_0_04_30: x[2,0,4,0] + x[2,3,0,1] <= 1
 move_2_0_04_31: x[2,0,4,0] + x[2,3,1,1] <= 1
 move_2_0_04_32: x[2,0,4,0] + x[2,3,2,1] <= 1
 move_2_0_04_33: x[2,0,4,0] + x[2,3,3,1] <= 1
 move_2_0_04_34: x[2,0,4,0] + x[2,3,4,1] <= 1
 move_2_0_04_40: x[2,0,4,0] + x[2,4,0,1] <= 1
 move_2_0_04_41: x[2,0,4,0] + x[2,4,1,1] <= 1
 move_2_0_04_42: x[2,0,4,0] + x[2,4,2,1] <= 1
 move_2_0_04_43: x[2,0,4,0] + x[2,4,3,1] <= 1
 move_2_0_04_44: x[2,0,4,0] + x[2,4,4,1] <= 1
 move_2_0_10_02: x[2,0,2,1] + x[2,1,0,0] <= 1
 move_2_0_10_03: x[2,0,3,1] + x[2,1,0,0] <= 1
 move_2_0_10_04: x[2,0,4,1] + x[2,1,0,0] <= 1
 move_2_0_10_13: x[2,1,0,0] + x[2,1,3,1] <= 1
 move_2_0_10_14: x[2,1,0,0] + x[2,1,4,1] <= 1
 move_2_0_10_22: x[2,1,0,0] + x[2,2,2,1] <= 1
 move_2_0_10_23: x[2,1,0,0] + x[2,2,3,1] <= 1
 move_2_0_10_24: x[2,1,0,0] + x[2,2,4,1] <= 1
 move_2_0_10_31: x[2,1,0,0] + x[2,3,1,1] <= 1
 move_2_0_10_32: x[2,1,0,0] + x[2,3,2,1] <= 1
 move_2_0_10_33: x[2,1,0,0] + x[2,3,3,1] <= 1
 move_2_0_10_34: x[2,1,0,0] + x[2,3,4,1] <= 1
 move_2_0_10_40: x[2,1,0,0] + x[2,4,0,1] <= 1
 move_2_0_10_41: x[2,1,0,0] + x[2,4,1,1] <= 1
 move_2_0_10_42: x[2,1,0,0] + x[2,4,2,1] <= 1
 move_2_0_10_43: x[2,1,0,0] + x[2,4,3,1] <= 1
 move_2_0_10_44: x[2,1,0,0] + x[2,4,4,1] <= 1
 move_2_0_11_03: x[2,0,3,1] + x[2,1,1,0] <= 1
 move_2_0_11_04: x[2,0,4,1] + x[2,1,1,0] <= 1
 move_2_0_11_14: x[2,1,1,0] + x[2,1,4,1] <= 1
 move_2_0_11_23: x[2,1,1,0] + x[2,2,3,1] <= 1
 move_2_0_11_24: x[2,1,1,0] + x[2,2,4,1] <= 1
 move_2_0_11_30: x[2,1,1,0] + x[2,3,0,1] <= 1
 move_2_0_11_32: x[2,1,1,0] + x[2,3,2,1] <= 1
 move_2_0_11_33: x[2,1,1,0] + x[2,3,3,1] <= 1
 move_2_0_11_34: x[2,1,1,0] + x[2,3,4,1] <= 1
 move_2_0_11_40: x[2,1,1,0] + x[2,4,0,1] <= 1
 move_2_0_11_41: x[2,1,1,0] + x[2,4,1,1] <= 1
 move_2_0_11_42: x[2,1,1,0] + x[2,4,2,1] <= 1
 move_2_0_11_43: x[2,1,1,0] + x[2,4,3,1] <= 1
 move_2_0_11_44: x[2,1,1,0] + x[2,4,4,1] <= 1
 move_2_0_12_00: x[2,0,0,1] + x[2,1,2,0] <= 1
 move_2_0_12_04: x[2,0,4,1] + x[2,1,2,0] <= 1
 move_2_0_12_20: x[2,1,2,0] + x[2,2,0,1] <= 1
 move_2_0_12_24: x[2,1,2,0] + x[2,2,4,1] <= 1
 move_2_0_12_30: x[2,1,2,0] + x[2,3,0,1] <= 1
 move_2_0_12_31: x[2,1,2,0] + x[2,3,1,1] <= 1
 move_2_0_12_33: x[2,1,2,0] + x[2,3,3,1] <= 1
 move_2_0_12_34: x[2,1,2,0] + x[2,3,4,1] <= 1
 move_2_0_12_40: x[2,1,2,0] + x[2,4,0,1] <= 1
 move_2_0_12_41: x[2,1,2,0] + x[2,4,1,1] <= 1
 move_2_0_12_42: x[2,1,2,0] + x[2,4,2,1] <= 1
 move_2_0_12_43: x[2,1,2,0] + x[2,4,3,1] <= 1
 move_2_0_12_44: x[2,1,2,0] + x[2,4,4,1] <= 1
 move_2_0_13_00: x[2,0,0,1] + x[2,1,3,0] <= 1
 move_2_0_13_01: x[2,0,1,1] + x[2,1,3,0] <= 1
 move_2_0_13_10: x[2,1,0,1] + x[2,1,3,0] <= 1
 move_2_0_13_20: x[2,1,3,0] + x[2,2,0,1] <= 1
 move_2_0_13_21: x[2,1,3,0] + x[2,2,1,1] <= 1
 move_2_0_13_30: x[2,1,3,0] + x[2,3,0,1] <= 1
 move_2_0_13_31: x[2,1,3,0] + x[2,3,1,1] <= 1
 move_2_0_13_32: x[2,1,3,0] + x[2,3,2,1] <= 1
 move_2_0_13_34: x[2,1,3,0] + x[2,3,4,1] <= 1
 move_2_0_13_40: x[2,1,3,0] + x[2,4,0,1] <= 1
 move_2_0_13_41: x[2,1,3,0] + x[2,4,1,1] <= 1
 move_2_0_13_42: x[2,1,3,0] + x[2,4,2,1] <= 1
 move_2_0_13_43: x[2,1,3,0] + x[2,4,3,1] <= 1
 move_2_0_13_44: x[2,1,3,0] + x[2,4,4,1] <= 1
 move_2_0_14_00: x[2,0,0,1] + x[2,1,4,0] <= 1
 move_2_0_14_01: x[2,0,1,1] + x[2,1,4,0] <= 1
 move_2_0_14_02: x[2,0,2,1] + x[2,1,4,0] <= 1
 move_2_0_14_10: x[2,1,0,1] + x[2,1,4,0] <= 1
 move_2_0_14_11: x[2,1,1,1] + x[2,1,4,0] <= 1
 move_2_0_14_20: x[2,1,4,0] + x[2,2,0,1] <= 1
 move_2_0_14_21: x[2,1,4,0] + x[2,2,1,1] <= 1
 move_2_0_14_22: x[2,1,4,0] + x[2,2,2,1] <= 1
 move_2_0_14_30: x[2,1,4,0] + x[2,3,0,1] <= 1
 move_2_0_14_31: x[2,1,4,0] + x[2,3,1,1] <= 1
 move_2_0_14_32: x[2,1,4,0] + x[2,3,2,1] <= 1
 move_2_0_14_33: x[2,1,4,0] + x[2,3,3,1] <= 1
 move_2_0_14_40: x[2,1,4,0] + x[2,4,0,1] <= 1
 move_2_0_14_41: x[2,1,4,0] + x[2,4,1,1] <= 1
 move_2_0_14_42: x[2,1,4,0] + x[2,4,2,1] <= 1
 move_2_0_14_43: x[2,1,4,0] + x[2,4,3,1] <= 1
 move_2_0_14_44: x[2,1,4,0] + x[2,4,4,1] <= 1
 move_2_0_20_01: x[2,0,1,1] + x[2,2,0,0] <= 1
 move_2_0_20_02: x[2,0,2,1] + x[2,2,0,0] <= 1
 move_2_0_20_03: x[2,0,3,1] + x[2,2,0,0] <= 1
 move_2_0_20_04: x[2,0,4,1] + x[2,2,0,0] <= 1
 move_2_0_20_12: x[2,1,2,1] + x[2,2,0,0] <= 1
 move_2_0_20_13: x[2,1,3,1] + x[2,2,0,0] <= 1
 move_2_0_20_14: x[2,1,4,1] + x[2,2,0,0] <= 1
 move_2_0_20_23: x[2,2,0,0] + x[2,2,3,1] <= 1
 move_2_0_20_24: x[2,2,0,0] + x[2,2,4,1] <= 1
 move_2_0_20_32: x[2,2,0,0] + x[2,3,2,1] <= 1
 move_2_0_20_33: x[2,2,0,0] + x[2,3,3,1] <= 1
 move_2_0_20_34: x[2,2,0,0] + x[2,3,4,1] <= 1
 move_2_0_20_41: x[2,2,0,0] + x[2,4,1,1] <= 1
 move_2_0_20_42: x[2,2,0,0] + x[2,4,2,1] <= 1
 move_2_0_20_43: x[2,2,0,0] + x[2,4,3,1] <= 1
 move_2_0_20_44: x[2,2,0,0] + x[2,4,4,1] <= 1
 move_2_0_21_00: x[2,0,0,1] + x[2,2,1,0] <= 1
 move_2_0_21_02: x[2,0,2,1] + x[2,2,1,0] <= 1
 move_2_0_21_03: x[2,0,3,1] + x[2,2,1,0] <= 1
 move_2_0_21_04: x[2,0,4,1] + x[2,2,1,0] <= 1
 move_2_0_21_13: x[2,1,3,1] + x[2,2,1,0] <= 1
 move_2_0_21_14: x[2,1,4,1] + x[2,2,1,0] <= 1
 move_2_0_21_24: x[2,2,1,0] + x[2,2,4,1] <= 1
 move_2_0_21_33: x[2,2,1,0] + x[2,3,3,1] <= 1
 move_2_0_21_34: x[2,2,1,0] + x[2,3,4,1] <= 1
 move_2_0_21_40: x[2,2,1,0] + x[2,4,0,1] <= 1
 move_2_0_21_42: x[2,2,1,0] + x[2,4,2,1] <= 1
 move_2_0_21_43: x[2,2,1,0] + x[2,4,3,1] <= 1
 move_2_0_21_44: x[2,2,1,0] + x[2,4,4,1] <= 1
 move_2_0_22_00: x[2,0,0,1] + x[2,2,2,0] <= 1
 move_2_0_22_01: x[2,0,1,1] + x[2,2,2,0] <= 1
 move_2_0_22_03: x[2,0,3,1] + x[2,2,2,0] <= 1
 move_2_0_22_04: x[2,0,4,1] + x[2,2,2,0] <= 1
 move_2_0_22_10: x[2,1,0,1] + x[2,2,2,0] <= 1
 move_2_0_22_14: x[2,1,4,1] + x[2,2,2,0] <= 1
 move_2_0_22_30: x[2,2,2,0] + x[2,3,0,1] <= 1
 move_2_0_22_34: x[2,2,2,0] + x[2,3,4,1] <= 1
 move_2_0_22_40: x[2,2,2,0] + x[2,4,0,1] <= 1
 move_2_0_22_41: x[2,2,2,0] + x[2,4,1,1] <= 1
 move_2_0_22_43: x[2,2,2,0] + x[2,4,3,1] <= 1
 move_2_0_22_44: x[2,2,2,0] + x[2,4,4,1] <= 1
 move_2_0_23_00: x[2,0,0,1] + x[2,2,3,0] <= 1
 move_2_0_23_01: x[2,0,1,1] + x[2,2,3,0] <= 1
 move_2_0_23_02: x[2,0,2,1] + x[2,2,3,0] <= 1
 move_2_0_23_04: x[2,0,4,1] + x[2,2,3,0] <= 1
 move_2_0_23_10: x[2,1,0,1] + x[2,2,3,0] <= 1
 move_2_0_23_11: x[2,1,1,1] + x[2,2,3,0] <= 1
 move_2_0_23_20: x[2,2,0,1] + x[2,2,3,0] <= 1
 move_2_0_23_30: x[2,2,3,0] + x[2,3,0,1] <= 1
 move_2_0_23_31: x[2,2,3,0] + x[2,3,1,1] <= 1
 move_2_0_23_40: x[2,2,3,0] + x[2,4,0,1] <= 1
 move_2_0_23_41: x[2,2,3,0] + x[2,4,1,1] <= 1
 move_2_0_23_42: x[2,2,3,0] + x[2,4,2,1] <= 1
 move_2_0_23_44: x[2,2,3,0] + x[2,4,4,1] <= 1
 move_2_0_24_00: x[2,0,0,1] + x[2,2,4,0] <= 1
 move_2_0_24_01: x[2,0,1,1] + x[2,2,4,0] <= 1
 move_2_0_24_02: x[2,0,2,1] + x[2,2,4,0] <= 1
 move_2_0_24_03: x[2,0,3,1] + x[2,2,4,0] <= 1
 move_2_0_24_10: x[2,1,0,1] + x[2,2,4,0] <= 1
 move_2_0_24_11: x[2,1,1,1] + x[2,2,4,0] <= 1
 move_2_0_24_12: x[2,1,2,1] + x[2,2,4,0] <= 1
 move_2_0_24_20: x[2,2,0,1] + x[2,2,4,0] <= 1
 move_2_0_24_21: x[2,2,1,1] + x[2,2,4,0] <= 1
 move_2_0_24_30: x[2,2,4,0] + x[2,3,0,1] <= 1
 move_2_0_24_31: x[2,2,4,0] + x[2,3,1,1] <= 1
 move_2_0_24_32: x[2,2,4,0] + x[2,3,2,1] <= 1
 move_2_0_24_40: x[2,2,4,0] + x[2,4,0,1] <= 1
 move_2_0_24_41: x[2,2,4,0] + x[2,4,1,1] <= 1
 move_2_0_24_42: x[2,2,4,0] + x[2,4,2,1] <= 1
 move_2_0_24_43: x[2,2,4,0] + x[2,4,3,1] <= 1
 move_2_0_30_00: x[2,0,0,1] + x[2,3,0,0] <= 1
 move_2_0_30_01: x[2,0,1,1] + x[2,3,0,0] <= 1
 move_2_0_30_02: x[2,0,2,1] + x[2,3,0,0] <= 1
 move_2_0_30_03: x[2,0,3,1] + x[2,3,0,0] <= 1
 move_2_0_30_04: x[2,0,4,1] + x[2,3,0,0] <= 1
 move_2_0_30_11: x[2,1,1,1] + x[2,3,0,0] <= 1
 move_2_0_30_12: x[2,1,2,1] + x[2,3,0,0] <= 1
 move_2_0_30_13: x[2,1,3,1] + x[2,3,0,0] <= 1
 move_2_0_30_14: x[2,1,4,1] + x[2,3,0,0] <= 1
 move_2_0_30_22: x[2,2,2,1] + x[2,3,0,0] <= 1
 move_2_0_30_23: x[2,2,3,1] + x[2,3,0,0] <= 1
 move_2_0_30_24: x[2,2,4,1] + x[2,3,0,0] <= 1
 move_2_0_30_33: x[2,3,0,0] + x[2,3,3,1] <= 1
 move_2_0_30_34: x[2,3,0,0] + x[2,3,4,1] <= 1
 move_2_0_30_42: x[2,3,0,0] + x[2,4,2,1] <= 1
 move_2_0_30_43: x[2,3,0,0] + x[2,4,3,1] <= 1
 move_2_0_30_44: x[2,3,0,0] + x[2,4,4,1] <= 1
 move_2_0_31_00: x[2,0,0,1] + x[2,3,1,0] <= 1
 move_2_0_31_01: x[2,0,1,1] + x[2,3,1,0] <= 1
 move_2_0_31_02: x[2,0,2,1] + x[2,3,1,0] <= 1
 move_2_0_31_03: x[2,0,3,1] + x[2,3,1,0] <= 1
 move_2_0_31_04: x[2,0,4,1] + x[2,3,1,0] <= 1
 move_2_0_31_10: x[2,1,0,1] + x[2,3,1,0] <= 1
 move_2_0_31_12: x[2,1,2,1] + x[2,3,1,0] <= 1
 move_2_0_31_13: x[2,1,3,1] + x[2,3,1,0] <= 1
 move_2_0_31_14: x[2,1,4,1] + x[2,3,1,0] <= 1
 move_2_0_31_23: x[2,2,3,1] + x[2,3,1,0] <= 1
 move_2_0_31_24: x[2,2,4,1] + x[2,3,1,0] <= 1
 move_2_0_31_34: x[2,3,1,0] + x[2,3,4,1] <= 1
 move_2_0_31_43: x[2,3,1,0] + x[2,4,3,1] <= 1
 move_2_0_31_44: x[2,3,1,0] + x[2,4,4,1] <= 1
 move_2_0_32_00: x[2,0,0,1] + x[2,3,2,0] <= 1
 move_2_0_32_01: x[2,0,1,1] + x[2,3,2,0] <= 1
 move_2_0_32_02: x[2,0,2,1] + x[2,3,2,0] <= 1
 move_2_0_32_03: x[2,0,3,1] + x[2,3,2,0] <= 1
 move_2_0_32_04: x[2,0,4,1] + x[2,3,2,0] <= 1
 move_2_0_32_10: x[2,1,0,1] + x[2,3,2,0] <= 1
 move_2_0_32_11: x[2,1,1,1] + x[2,3,2,0] <= 1
 move_2_0_32_13: x[2,1,3,1] + x[2,3,2,0] <= 1
 move_2_0_32_14: x[2,1,4,1] + x[2,3,2,0] <= 1
 move_2_0_32_20: x[2,2,0,1] + x[2,3,2,0] <= 1
 move_2_0_32_24: x[2,2,4,1] + x[2,3,2,0] <= 1
 move_2_0_32_40: x[2,3,2,0] + x[2,4,0,1] <= 1
 move_2_0_32_44: x[2,3,2,0] + x[2,4,4,1] <= 1
 move_2_0_33_00: x[2,0,0,1] + x[2,3,3,0] <= 1
 move_2_0_33_01: x[2,0,1,1] + x[2,3,3,0] <= 1
 move_2_0_33_02: x[2,0,2,1] + x[2,3,3,0] <= 1
 move_2_0_33_03: x[2,0,3,1] + x[2,3,3,0] <= 1
 move_2_0_33_04: x[2,0,4,1] + x[2,3,3,0] <= 1
 move_2_0_33_10: x[2,1,0,1] + x[2,3,3,0] <= 1
 move_2_0_33_11: x[2,1,1,1] + x[2,3,3,0] <= 1
 move_2_0_33_12: x[2,1,2,1] + x[2,3,3,0] <= 1
 move_2_0_33_14: x[2,1,4,1] + x[2,3,3,0] <= 1
 move_2_0_33_20: x[2,2,0,1] + x[2,3,3,0] <= 1
 move_2_0_33_21: x[2,2,1,1] + x[2,3,3,0] <= 1
 move_2_0_33_30: x[2,3,0,1] + x[2,3,3,0] <= 1
 move_2_0_33_40: x[2,3,3,0] + x[2,4,0,1] <= 1
 move_2_0_33_41: x[2,3,3,0] + x[2,4,1,1] <= 1
 move_2_0_34_00: x[2,0,0,1] + x[2,3,4,0] <= 1
 move_2_0_34_01: x[2,0,1,1] + x[2,3,4,0] <= 1
 move_2_0_34_02: x[2,0,2,1] + x[2,3,4,0] <= 1
 move_2_0_34_03: x[2,0,3,1] + x[2,3,4,0] <= 1
 move_2_0_34_04: x[2,0,4,1] + x[2,3,4,0] <= 1
 move_2_0_34_10: x[2,1,0,1] + x[2,3,4,0] <= 1
 move_2_0_34_11: x[2,1,1,1] + x[2,3,4,0] <= 1
 move_2_0_34_12: x[2,1,2,1] + x[2,3,4,0] <= 1
 move_2_0_34_13: x[2,1,3,1] + x[2,3,4,0] <= 1
 move_2_0_34_20: x[2,2,0,1] + x[2,3,4,0] <= 1
 move_2_0_34_21: x[2,2,1,1] + x[2,3,4,0] <= 1
 move_2_0_34_22: x[2,2,2,1] + x[2,3,4,0] <= 1
 move_2_0_34_30: x[2,3,0,1] + x[2,3,4,0] <= 1
 move_2_0_34_31: x[2,3,1,1] + x[2,3,4,0] <= 1
 move_2_0_34_40: x[2,3,4,0] + x[2,4,0,1] <= 1
 move_2_0_34_41: x[2,3,4,0] + x[2,4,1,1] <= 1
 move_2_0_34_42: x[2,3,4,0] + x[2,4,2,1] <= 1
 move_2_0_40_00: x[2,0,0,1] + x[2,4,0,0] <= 1
 move_2_0_40_01: x[2,0,1,1] + x[2,4,0,0] <= 1
 move_2_0_40_02: x[2,0,2,1] + x[2,4,0,0] <= 1
 move_2_0_40_03: x[2,0,3,1] + x[2,4,0,0] <= 1
 move_2_0_40_04: x[2,0,4,1] + x[2,4,0,0] <= 1
 move_2_0_40_10: x[2,1,0,1] + x[2,4,0,0] <= 1
 move_2_0_40_11: x[2,1,1,1] + x[2,4,0,0] <= 1
 move_2_0_40_12: x[2,1,2,1] + x[2,4,0,0] <= 1
 move_2_0_40_13: x[2,1,3,1] + x[2,4,0,0] <= 1
 move_2_0_40_14: x[2,1,4,1] + x[2,4,0,0] <= 1
 move_2_0_40_21: x[2,2,1,1] + x[2,4,0,0] <= 1
 move_2_0_40_22: x[2,2,2,1] + x[2,4,0,0] <= 1
 move_2_0_40_23: x[2,2,3,1] + x[2,4,0,0] <= 1
 move_2_0_40_24: x[2,2,4,1] + x[2,4,0,0] <= 1
 move_2_0_40_32: x[2,3,2,1] + x[2,4,0,0] <= 1
 move_2_0_40_33: x[2,3,3,1] + x[2,4,0,0] <= 1
 move_2_0_40_34: x[2,3,4,1] + x[2,4,0,0] <= 1
 move_2_0_40_43: x[2,4,0,0] + x[2,4,3,1] <= 1
 move_2_0_40_44: x[2,4,0,0] + x[2,4,4,1] <= 1
 move_2_0_41_00: x[2,0,0,1] + x[2,4,1,0] <= 1
 move_2_0_41_01: x[2,0,1,1] + x[2,4,1,0] <= 1
 move_2_0_41_02: x[2,0,2,1] + x[2,4,1,0] <= 1
 move_2_0_41_03: x[2,0,3,1] + x[2,4,1,0] <= 1
 move_2_0_41_04: x[2,0,4,1] + x[2,4,1,0] <= 1
 move_2_0_41_10: x[2,1,0,1] + x[2,4,1,0] <= 1
 move_2_0_41_11: x[2,1,1,1] + x[2,4,1,0] <= 1
 move_2_0_41_12: x[2,1,2,1] + x[2,4,1,0] <= 1
 move_2_0_41_13: x[2,1,3,1] + x[2,4,1,0] <= 1
 move_2_0_41_14: x[2,1,4,1] + x[2,4,1,0] <= 1
 move_2_0_41_20: x[2,2,0,1] + x[2,4,1,0] <= 1
 move_2_0_41_22: x[2,2,2,1] + x[2,4,1,0] <= 1
 move_2_0_41_23: x[2,2,3,1] + x[2,4,1,0] <= 1
 move_2_0_41_24: x[2,2,4,1] + x[2,4,1,0] <= 1
 move_2_0_41_33: x[2,3,3,1] + x[2,4,1,0] <= 1
 move_2_0_41_34: x[2,3,4,1] + x[2,4,1,0] <= 1
 move_2_0_41_44: x[2,4,1,0] + x[2,4,4,1] <= 1
 move_2_0_42_00: x[2,0,0,1] + x[2,4,2,0] <= 1
 move_2_0_42_01: x[2,0,1,1] + x[2,4,2,0] <= 1
 move_2_0_42_02: x[2,0,2,1] + x[2,4,2,0] <= 1
 move_2_0_42_03: x[2,0,3,1] + x[2,4,2,0] <= 1
 move_2_0_42_04: x[2,0,4,1] + x[2,4,2,0] <= 1
 move_2_0_42_10: x[2,1,0,1] + x[2,4,2,0] <= 1
 move_2_0_42_11: x[2,1,1,1] + x[2,4,2,0] <= 1
 move_2_0_42_12: x[2,1,2,1] + x[2,4,2,0] <= 1
 move_2_0_42_13: x[2,1,3,1] + x[2,4,2,0] <= 1
 move_2_0_42_14: x[2,1,4,1] + x[2,4,2,0] <= 1
 move_2_0_42_20: x[2,2,0,1] + x[2,4,2,0] <= 1
 move_2_0_42_21: x[2,2,1,1] + x[2,4,2,0] <= 1
 move_2_0_42_23: x[2,2,3,1] + x[2,4,2,0] <= 1
 move_2_0_42_24: x[2,2,4,1] + x[2,4,2,0] <= 1
 move_2_0_42_30: x[2,3,0,1] + x[2,4,2,0] <= 1
 move_2_0_42_34: x[2,3,4,1] + x[2,4,2,0] <= 1
 move_2_0_43_00: x[2,0,0,1] + x[2,4,3,0] <= 1
 move_2_0_43_01: x[2,0,1,1] + x[2,4,3,0] <= 1
 move_2_0_43_02: x[2,0,2,1] + x[2,4,3,0] <= 1
 move_2_0_43_03: x[2,0,3,1] + x[2,4,3,0] <= 1
 move_2_0_43_04: x[2,0,4,1] + x[2,4,3,0] <= 1
 move_2_0_43_10: x[2,1,0,1] + x[2,4,3,0] <= 1
 move_2_0_43_11: x[2,1,1,1] + x[2,4,3,0] <= 1
 move_2_0_43_12: x[2,1,2,1] + x[2,4,3,0] <= 1
 move_2_0_43_13: x[2,1,3,1] + x[2,4,3,0] <= 1
 move_2_0_43_14: x[2,1,4,1] + x[2,4,3,0] <= 1
 move_2_0_43_20: x[2,2,0,1] + x[2,4,3,0] <= 1
 move_2_0_43_21: x[2,2,1,1] + x[2,4,3,0] <= 1
 move_2_0_43_22: x[2,2,2,1] + x[2,4,3,0] <= 1
 move_2_0_43_24: x[2,2,4,1] + x[2,4,3,0] <= 1
 move_2_0_43_30: x[2,3,0,1] + x[2,4,3,0] <= 1
 move_2_0_43_31: x[2,3,1,1] + x[2,4,3,0] <= 1
 move_2_0_43_40: x[2,4,0,1] + x[2,4,3,0] <= 1
 move_2_0_44_00: x[2,0,0,1] + x[2,4,4,0] <= 1
 move_2_0_44_01: x[2,0,1,1] + x[2,4,4,0] <= 1
 move_2_0_44_02: x[2,0,2,1] + x[2,4,4,0] <= 1
 move_2_0_44_03: x[2,0,3,1] + x[2,4,4,0] <= 1
 move_2_0_44_04: x[2,0,4,1] + x[2,4,4,0] <= 1
 move_2_0_44_10: x[2,1,0,1] + x[2,4,4,0] <= 1
 move_2_0_44_11: x[2,1,1,1] + x[2,4,4,0] <= 1
 move_2_0_44_12: x[2,1,2,1] + x[2,4,4,0] <= 1
 move_2_0_44_13: x[2,1,3,1] + x[2,4,4,0] <= 1
 move_2_0_44_14: x[2,1,4,1] + x[2,4,4,0] <= 1
 move_2_0_44_20: x[2,2,0,1] + x[2,4,4,0] <= 1
 move_2_0_44_21: x[2,2,1,1] + x[2,4,4,0] <= 1
 move_2_0_44_22: x[2,2,2,1] + x[2,4,4,0] <= 1
 move_2_0_44_23: x[2,2,3,1] + x[2,4,4,0] <= 1
 move_2_0_44_30: x[2,3,0,1] + x[2,4,4,0] <= 1
 move_2_0_44_31: x[2,3,1,1] + x[2,4,4,0] <= 1
 move_2_0_44_32: x[2,3,2,1] + x[2,4,4,0] <= 1
 move_2_0_44_40: x[2,4,0,1] + x[2,4,4,0] <= 1
 move_2_0_44_41: x[2,4,1,1] + x[2,4,4,0] <= 1
 move_2_1_00_03: x[2,0,0,1] + x[2,0,3,2] <= 1
 move_2_1_00_04: x[2,0,0,1] + x[2,0,4,2] <= 1
 move_2_1_00_12: x[2,0,0,1] + x[2,1,2,2] <= 1
 move_2_1_00_13: x[2,0,0,1] + x[2,1,3,2] <= 1
 move_2_1_00_14: x[2,0,0,1] + x[2,1,4,2] <= 1
 move_2_1_00_21: x[2,0,0,1] + x[2,2,1,2] <= 1
 move_2_1_00_22: x[2,0,0,1] + x[2,2,2,2] <= 1
 move_2_1_00_23: x[2,0,0,1] + x[2,2,3,2] <= 1
 move_2_1_00_24: x[2,0,0,1] + x[2,2,4,2] <= 1
 move_2_1_00_30: x[2,0,0,1] + x[2,3,0,2] <= 1
 move_2_1_00_31: x[2,0,0,1] + x[2,3,1,2] <= 1
 move_2_1_00_32: x[2,0,0,1] + x[2,3,2,2] <= 1
 move_2_1_00_33: x[2,0,0,1] + x[2,3,3,2] <= 1
 move_2_1_00_34: x[2,0,0,1] + x[2,3,4,2] <= 1
 move_2_1_00_40: x[2,0,0,1] + x[2,4,0,2] <= 1
 move_2_1_00_41: x[2,0,0,1] + x[2,4,1,2] <= 1
 move_2_1_00_42: x[2,0,0,1] + x[2,4,2,2] <= 1
 move_2_1_00_43: x[2,0,0,1] + x[2,4,3,2] <= 1
 move_2_1_00_44: x[2,0,0,1] + x[2,4,4,2] <= 1
 move_2_1_01_04: x[2,0,1,1] + x[2,0,4,2] <= 1
 move_2_1_01_13: x[2,0,1,1] + x[2,1,3,2] <= 1
 move_2_1_01_14: x[2,0,1,1] + x[2,1,4,2] <= 1
 move_2_1_01_20: x[2,0,1,1] + x[2,2,0,2] <= 1
 move_2_1_01_22: x[2,0,1,1] + x[2,2,2,2] <= 1
 move_2_1_01_23: x[2,0,1,1] + x[2,2,3,2] <= 1
 move_2_1_01_24: x[2,0,1,1] + x[2,2,4,2] <= 1
 move_2_1_01_30: x[2,0,1,1] + x[2,3,0,2] <= 1
 move_2_1_01_31: x[2,0,1,1] + x[2,3,1,2] <= 1
 move_2_1_01_32: x[2,0,1,1] + x[2,3,2,2] <= 1
 move_2_1_01_33: x[2,0,1,1] + x[2,3,3,2] <= 1
 move_2_1_01_34: x[2,0,1,1] + x[2,3,4,2] <= 1
 move_2_1_01_40: x[2,0,1,1] + x[2,4,0,2] <= 1
 move_2_1_01_41: x[2,0,1,1] + x[2,4,1,2] <= 1
 move_2_1_01_42: x[2,0,1,1] + x[2,4,2,2] <= 1
 move_2_1_01_43: x[2,0,1,1] + x[2,4,3,2] <= 1
 move_2_1_01_44: x[2,0,1,1] + x[2,4,4,2] <= 1
 move_2_1_02_10: x[2,0,2,1] + x[2,1,0,2] <= 1
 move_2_1_02_14: x[2,0,2,1] + x[2,1,4,2] <= 1
 move_2_1_02_20: x[2,0,2,1] + x[2,2,0,2] <= 1
 move_2_1_02_21: x[2,0,2,1] + x[2,2,1,2] <= 1
 move_2_1_02_23: x[2,0,2,1] + x[2,2,3,2] <= 1
 move_2_1_02_24: x[2,0,2,1] + x[2,2,4,2] <= 1
 move_2_1_02_30: x[2,0,2,1] + x[2,3,0,2] <= 1
 move_2_1_02_31: x[2,0,2,1] + x[2,3,1,2] <= 1
 move_2_1_02_32: x[2,0,2,1] + x[2,3,2,2] <= 1
 move_2_1_02_33: x[2,0,2,1] + x[2,3,3,2] <= 1
 move_2_1_02_34: x[2,0,2,1] + x[2,3,4,2] <= 1
 move_2_1_02_40: x[2,0,2,1] + x[2,4,0,2] <= 1
 move_2_1_02_41: x[2,0,2,1] + x[2,4,1,2] <= 1
 move_2_1_02_42: x[2,0,2,1] + x[2,4,2,2] <= 1
 move_2_1_02_43: x[2,0,2,1] + x[2,4,3,2] <= 1
 move_2_1_02_44: x[2,0,2,1] + x[2,4,4,2] <= 1
 move_2_1_03_00: x[2,0,0,2] + x[2,0,3,1] <= 1
 move_2_1_03_10: x[2,0,3,1] + x[2,1,0,2] <= 1
 move_2_1_03_11: x[2,0,3,1] + x[2,1,1,2] <= 1
 move_2_1_03_20: x[2,0,3,1] + x[2,2,0,2] <= 1
 move_2_1_03_21: x[2,0,3,1] + x[2,2,1,2] <= 1
 move_2_1_03_22: x[2,0,3,1] + x[2,2,2,2] <= 1
 move_2_1_03_24: x[2,0,3,1] + x[2,2,4,2] <= 1
 move_2_1_03_30: x[2,0,3,1] + x[2,3,0,2] <= 1
 move_2_1_03_31: x[2,0,3,1] + x[2,3,1,2] <= 1
 move_2_1_03_32: x[2,0,3,1] + x[2,3,2,2] <= 1
 move_2_1_03_33: x[2,0,3,1] + x[2,3,3,2] <= 1
 move_2_1_03_34: x[2,0,3,1] + x[2,3,4,2] <= 1
 move_2_1_03_40: x[2,0,3,1] + x[2,4,0,2] <= 1
 move_2_1_03_41: x[2,0,3,1] + x[2,4,1,2] <= 1
 move_2_1_03_42: x[2,0,3,1] + x[2,4,2,2] <= 1
 move_2_1_03_43: x[2,0,3,1] + x[2,4,3,2] <= 1
 move_2_1_03_44: x[2,0,3,1] + x[2,4,4,2] <= 1
 move_2_1_04_00: x[2,0,0,2] + x[2,0,4,1] <= 1
 move_2_1_04_01: x[2,0,1,2] + x[2,0,4,1] <= 1
 move_2_1_04_10: x[2,0,4,1] + x[2,1,0,2] <= 1
 move_2_1_04_11: x[2,0,4,1] + x[2,1,1,2] <= 1
 move_2_1_04_12: x[2,0,4,1] + x[2,1,2,2] <= 1
 move_2_1_04_20: x[2,0,4,1] + x[2,2,0,2] <= 1
 move_2_1_04_21: x[2,0,4,1] + x[2,2,1,2] <= 1
 move_2_1_04_22: x[2,0,4,1] + x[2,2,2,2] <= 1
 move_2_1_04_23: x[2,0,4,1] + x[2,2,3,2] <= 1
 move_2_1_04_30: x[2,0,4,1] + x[2,3,0,2] <= 1
 move_2_1_04_31: x[2,0,4,1] + x[2,3,1,2] <= 1
 move_2_1_04_32: x[2,0,4,1] + x[2,3,2,2] <= 1
 move_2_1_04_33: x[2,0,4,1] + x[2,3,3,2] <= 1
 move_2_1_04_34: x[2,0,4,1] + x[2,3,4,2] <= 1
 move_2_1_04_40: x[2,0,4,1] + x[2,4,0,2] <= 1
 move_2_1_04_41: x[2,0,4,1] + x[2,4,1,2] <= 1
 move_2_1_04_42: x[2,0,4,1] + x[2,4,2,2] <= 1
 move_2_1_04_43: x[2,0,4,1] + x[2,4,3,2] <= 1
 move_2_1_04_44: x[2,0,4,1] + x[2,4,4,2] <= 1
 move_2_1_10_02: x[2,0,2,2] + x[2,1,0,1] <= 1
 move_2_1_10_03: x[2,0,3,2] + x[2,1,0,1] <= 1
 move_2_1_10_04: x[2,0,4,2] + x[2,1,0,1] <= 1
 move_2_1_10_13: x[2,1,0,1] + x[2,1,3,2] <= 1
 move_2_1_10_14: x[2,1,0,1] + x[2,1,4,2] <= 1
 move_2_1_10_22: x[2,1,0,1] + x[2,2,2,2] <= 1
 move_2_1_10_23: x[2,1,0,1] + x[2,2,3,2] <= 1
 move_2_1_10_24: x[2,1,0,1] + x[2,2,4,2] <= 1
 move_2_1_10_31: x[2,1,0,1] + x[2,3,1,2] <= 1
 move_2_1_10_32: x[2,1,0,1] + x[2,3,2,2] <= 1
 move_2_1_10_33: x[2,1,0,1] + x[2,3,3,2] <= 1
 move_2_1_10_34: x[2,1,0,1] + x[2,3,4,2] <= 1
 move_2_1_10_40: x[2,1,0,1] + x[2,4,0,2] <= 1
 move_2_1_10_41: x[2,1,0,1] + x[2,4,1,2] <= 1
 move_2_1_10_42: x[2,1,0,1] + x[2,4,2,2] <= 1
 move_2_1_10_43: x[2,1,0,1] + x[2,4,3,2] <= 1
 move_2_1_10_44: x[2,1,0,1] + x[2,4,4,2] <= 1
 move_2_1_11_03: x[2,0,3,2] + x[2,1,1,1] <= 1
 move_2_1_11_04: x[2,0,4,2] + x[2,1,1,1] <= 1
 move_2_1_11_14: x[2,1,1,1] + x[2,1,4,2] <= 1
 move_2_1_11_23: x[2,1,1,1] + x[2,2,3,2] <= 1
 move_2_1_11_24: x[2,1,1,1] + x[2,2,4,2] <= 1
 move_2_1_11_30: x[2,1,1,1] + x[2,3,0,2] <= 1
 move_2_1_11_32: x[2,1,1,1] + x[2,3,2,2] <= 1
 move_2_1_11_33: x[2,1,1,1] + x[2,3,3,2] <= 1
 move_2_1_11_34: x[2,1,1,1] + x[2,3,4,2] <= 1
 move_2_1_11_40: x[2,1,1,1] + x[2,4,0,2] <= 1
 move_2_1_11_41: x[2,1,1,1] + x[2,4,1,2] <= 1
 move_2_1_11_42: x[2,1,1,1] + x[2,4,2,2] <= 1
 move_2_1_11_43: x[2,1,1,1] + x[2,4,3,2] <= 1
 move_2_1_11_44: x[2,1,1,1] + x[2,4,4,2] <= 1
 move_2_1_12_00: x[2,0,0,2] + x[2,1,2,1] <= 1
 move_2_1_12_04: x[2,0,4,2] + x[2,1,2,1] <= 1
 move_2_1_12_20: x[2,1,2,1] + x[2,2,0,2] <= 1
 move_2_1_12_24: x[2,1,2,1] + x[2,2,4,2] <= 1
 move_2_1_12_30: x[2,1,2,1] + x[2,3,0,2] <= 1
 move_2_1_12_31: x[2,1,2,1] + x[2,3,1,2] <= 1
 move_2_1_12_33: x[2,1,2,1] + x[2,3,3,2] <= 1
 move_2_1_12_34: x[2,1,2,1] + x[2,3,4,2] <= 1
 move_2_1_12_40: x[2,1,2,1] + x[2,4,0,2] <= 1
 move_2_1_12_41: x[2,1,2,1] + x[2,4,1,2] <= 1
 move_2_1_12_42: x[2,1,2,1] + x[2,4,2,2] <= 1
 move_2_1_12_43: x[2,1,2,1] + x[2,4,3,2] <= 1
 move_2_1_12_44: x[2,1,2,1] + x[2,4,4,2] <= 1
 move_2_1_13_00: x[2,0,0,2] + x[2,1,3,1] <= 1
 move_2_1_13_01: x[2,0,1,2] + x[2,1,3,1] <= 1
 move_2_1_13_10: x[2,1,0,2] + x[2,1,3,1] <= 1
 move_2_1_13_20: x[2,1,3,1] + x[2,2,0,2] <= 1
 move_2_1_13_21: x[2,1,3,1] + x[2,2,1,2] <= 1
 move_2_1_13_30: x[2,1,3,1] + x[2,3,0,2] <= 1
 move_2_1_13_31: x[2,1,3,1] + x[2,3,1,2] <= 1
 move_2_1_13_32: x[2,1,3,1] + x[2,3,2,2] <= 1
 move_2_1_13_34: x[2,1,3,1] + x[2,3,4,2] <= 1
 move_2_1_13_40: x[2,1,3,1] + x[2,4,0,2] <= 1
 move_2_1_13_41: x[2,1,3,1] + x[2,4,1,2] <= 1
 move_2_1_13_42: x[2,1,3,1] + x[2,4,2,2] <= 1
 move_2_1_13_43: x[2,1,3,1] + x[2,4,3,2] <= 1
 move_2_1_13_44: x[2,1,3,1] + x[2,4,4,2] <= 1
 move_2_1_14_00: x[2,0,0,2] + x[2,1,4,1] <= 1
 move_2_1_14_01: x[2,0,1,2] + x[2,1,4,1] <= 1
 move_2_1_14_02: x[2,0,2,2] + x[2,1,4,1] <= 1
 move_2_1_14_10: x[2,1,0,2] + x[2,1,4,1] <= 1
 move_2_1_14_11: x[2,1,1,2] + x[2,1,4,1] <= 1
 move_2_1_14_20: x[2,1,4,1] + x[2,2,0,2] <= 1
 move_2_1_14_21: x[2,1,4,1] + x[2,2,1,2] <= 1
 move_2_1_14_22: x[2,1,4,1] + x[2,2,2,2] <= 1
 move_2_1_14_30: x[2,1,4,1] + x[2,3,0,2] <= 1
 move_2_1_14_31: x[2,1,4,1] + x[2,3,1,2] <= 1
 move_2_1_14_32: x[2,1,4,1] + x[2,3,2,2] <= 1
 move_2_1_14_33: x[2,1,4,1] + x[2,3,3,2] <= 1
 move_2_1_14_40: x[2,1,4,1] + x[2,4,0,2] <= 1
 move_2_1_14_41: x[2,1,4,1] + x[2,4,1,2] <= 1
 move_2_1_14_42: x[2,1,4,1] + x[2,4,2,2] <= 1
 move_2_1_14_43: x[2,1,4,1] + x[2,4,3,2] <= 1
 move_2_1_14_44: x[2,1,4,1] + x[2,4,4,2] <= 1
 move_2_1_20_01: x[2,0,1,2] + x[2,2,0,1] <= 1
 move_2_1_20_02: x[2,0,2,2] + x[2,2,0,1] <= 1
 move_2_1_20_03: x[2,0,3,2] + x[2,2,0,1] <= 1
 move_2_1_20_04: x[2,0,4,2] + x[2,2,0,1] <= 1
 move_2_1_20_12: x[2,1,2,2] + x[2,2,0,1] <= 1
 move_2_1_20_13: x[2,1,3,2] + x[2,2,0,1] <= 1
 move_2_1_20_14: x[2,1,4,2] + x[2,2,0,1] <= 1
 move_2_1_20_23: x[2,2,0,1] + x[2,2,3,2] <= 1
 move_2_1_20_24: x[2,2,0,1] + x[2,2,4,2] <= 1
 move_2_1_20_32: x[2,2,0,1] + x[2,3,2,2] <= 1
 move_2_1_20_33: x[2,2,0,1] + x[2,3,3,2] <= 1
 move_2_1_20_34: x[2,2,0,1] + x[2,3,4,2] <= 1
 move_2_1_20_41: x[2,2,0,1] + x[2,4,1,2] <= 1
 move_2_1_20_42: x[2,2,0,1] + x[2,4,2,2] <= 1
 move_2_1_20_43: x[2,2,0,1] + x[2,4,3,2] <= 1
 move_2_1_20_44: x[2,2,0,1] + x[2,4,4,2] <= 1
 move_2_1_21_00: x[2,0,0,2] + x[2,2,1,1] <= 1
 move_2_1_21_02: x[2,0,2,2] + x[2,2,1,1] <= 1
 move_2_1_21_03: x[2,0,3,2] + x[2,2,1,1] <= 1
 move_2_1_21_04: x[2,0,4,2] + x[2,2,1,1] <= 1
 move_2_1_21_13: x[2,1,3,2] + x[2,2,1,1] <= 1
 move_2_1_21_14: x[2,1,4,2] + x[2,2,1,1] <= 1
 move_2_1_21_24: x[2,2,1,1] + x[2,2,4,2] <= 1
 move_2_1_21_33: x[2,2,1,1] + x[2,3,3,2] <= 1
 move_2_1_21_34: x[2,2,1,1] + x[2,3,4,2] <= 1
 move_2_1_21_40: x[2,2,1,1] + x[2,4,0,2] <= 1
 move_2_1_21_42: x[2,2,1,1] + x[2,4,2,2] <= 1
 move_2_1_21_43: x[2,2,1,1] + x[2,4,3,2] <= 1
 move_2_1_21_44: x[2,2,1,1] + x[2,4,4,2] <= 1
 move_2_1_22_00: x[2,0,0,2] + x[2,2,2,1] <= 1
 move_2_1_22_01: x[2,0,1,2] + x[2,2,2,1] <= 1
 move_2_1_22_03: x[2,0,3,2] + x[2,2,2,1] <= 1
 move_2_1_22_04: x[2,0,4,2] + x[2,2,2,1] <= 1
 move_2_1_22_10: x[2,1,0,2] + x[2,2,2,1] <= 1
 move_2_1_22_14: x[2,1,4,2] + x[2,2,2,1] <= 1
 move_2_1_22_30: x[2,2,2,1] + x[2,3,0,2] <= 1
 move_2_1_22_34: x[2,2,2,1] + x[2,3,4,2] <= 1
 move_2_1_22_40: x[2,2,2,1] + x[2,4,0,2] <= 1
 move_2_1_22_41: x[2,2,2,1] + x[2,4,1,2] <= 1
 move_2_1_22_43: x[2,2,2,1] + x[2,4,3,2] <= 1
 move_2_1_22_44: x[2,2,2,1] + x[2,4,4,2] <= 1
 move_2_1_23_00: x[2,0,0,2] + x[2,2,3,1] <= 1
 move_2_1_23_01: x[2,0,1,2] + x[2,2,3,1] <= 1
 move_2_1_23_02: x[2,0,2,2] + x[2,2,3,1] <= 1
 move_2_1_23_04: x[2,0,4,2] + x[2,2,3,1] <= 1
 move_2_1_23_10: x[2,1,0,2] + x[2,2,3,1] <= 1
 move_2_1_23_11: x[2,1,1,2] + x[2,2,3,1] <= 1
 move_2_1_23_20: x[2,2,0,2] + x[2,2,3,1] <= 1
 move_2_1_23_30: x[2,2,3,1] + x[2,3,0,2] <= 1
 move_2_1_23_31: x[2,2,3,1] + x[2,3,1,2] <= 1
 move_2_1_23_40: x[2,2,3,1] + x[2,4,0,2] <= 1
 move_2_1_23_41: x[2,2,3,1] + x[2,4,1,2] <= 1
 move_2_1_23_42: x[2,2,3,1] + x[2,4,2,2] <= 1
 move_2_1_23_44: x[2,2,3,1] + x[2,4,4,2] <= 1
 move_2_1_24_00: x[2,0,0,2] + x[2,2,4,1] <= 1
 move_2_1_24_01: x[2,0,1,2] + x[2,2,4,1] <= 1
 move_2_1_24_02: x[2,0,2,2] + x[2,2,4,1] <= 1
 move_2_1_24_03: x[2,0,3,2] + x[2,2,4,1] <= 1
 move_2_1_24_10: x[2,1,0,2] + x[2,2,4,1] <= 1
 move_2_1_24_11: x[2,1,1,2] + x[2,2,4,1] <= 1
 move_2_1_24_12: x[2,1,2,2] + x[2,2,4,1] <= 1
 move_2_1_24_20: x[2,2,0,2] + x[2,2,4,1] <= 1
 move_2_1_24_21: x[2,2,1,2] + x[2,2,4,1] <= 1
 move_2_1_24_30: x[2,2,4,1] + x[2,3,0,2] <= 1
 move_2_1_24_31: x[2,2,4,1] + x[2,3,1,2] <= 1
 move_2_1_24_32: x[2,2,4,1] + x[2,3,2,2] <= 1
 move_2_1_24_40: x[2,2,4,1] + x[2,4,0,2] <= 1
 move_2_1_24_41: x[2,2,4,1] + x[2,4,1,2] <= 1
 move_2_1_24_42: x[2,2,4,1] + x[2,4,2,2] <= 1
 move_2_1_24_43: x[2,2,4,1] + x[2,4,3,2] <= 1
 move_2_1_30_00: x[2,0,0,2] + x[2,3,0,1] <= 1
 move_2_1_30_01: x[2,0,1,2] + x[2,3,0,1] <= 1
 move_2_1_30_02: x[2,0,2,2] + x[2,3,0,1] <= 1
 move_2_1_30_03: x[2,0,3,2] + x[2,3,0,1] <= 1
 move_2_1_30_04: x[2,0,4,2] + x[2,3,0,1] <= 1
 move_2_1_30_11: x[2,1,1,2] + x[2,3,0,1] <= 1
 move_2_1_30_12: x[2,1,2,2] + x[2,3,0,1] <= 1
 move_2_1_30_13: x[2,1,3,2] + x[2,3,0,1] <= 1
 move_2_1_30_14: x[2,1,4,2] + x[2,3,0,1] <= 1
 move_2_1_30_22: x[2,2,2,2] + x[2,3,0,1] <= 1
 move_2_1_30_23: x[2,2,3,2] + x[2,3,0,1] <= 1
 move_2_1_30_24: x[2,2,4,2] + x[2,3,0,1] <= 1
 move_2_1_30_33: x[2,3,0,1] + x[2,3,3,2] <= 1
 move_2_1_30_34: x[2,3,0,1] + x[2,3,4,2] <= 1
 move_2_1_30_42: x[2,3,0,1] + x[2,4,2,2] <= 1
 move_2_1_30_43: x[2,3,0,1] + x[2,4,3,2] <= 1
 move_2_1_30_44: x[2,3,0,1] + x[2,4,4,2] <= 1
 move_2_1_31_00: x[2,0,0,2] + x[2,3,1,1] <= 1
 move_2_1_31_01: x[2,0,1,2] + x[2,3,1,1] <= 1
 move_2_1_31_02: x[2,0,2,2] + x[2,3,1,1] <= 1
 move_2_1_31_03: x[2,0,3,2] + x[2,3,1,1] <= 1
 move_2_1_31_04: x[2,0,4,2] + x[2,3,1,1] <= 1
 move_2_1_31_10: x[2,1,0,2] + x[2,3,1,1] <= 1
 move_2_1_31_12: x[2,1,2,2] + x[2,3,1,1] <= 1
 move_2_1_31_13: x[2,1,3,2] + x[2,3,1,1] <= 1
 move_2_1_31_14: x[2,1,4,2] + x[2,3,1,1] <= 1
 move_2_1_31_23: x[2,2,3,2] + x[2,3,1,1] <= 1
 move_2_1_31_24: x[2,2,4,2] + x[2,3,1,1] <= 1
 move_2_1_31_34: x[2,3,1,1] + x[2,3,4,2] <= 1
 move_2_1_31_43: x[2,3,1,1] + x[2,4,3,2] <= 1
 move_2_1_31_44: x[2,3,1,1] + x[2,4,4,2] <= 1
 move_2_1_32_00: x[2,0,0,2] + x[2,3,2,1] <= 1
 move_2_1_32_01: x[2,0,1,2] + x[2,3,2,1] <= 1
 move_2_1_32_02: x[2,0,2,2] + x[2,3,2,1] <= 1
 move_2_1_32_03: x[2,0,3,2] + x[2,3,2,1] <= 1
 move_2_1_32_04: x[2,0,4,2] + x[2,3,2,1] <= 1
 move_2_1_32_10: x[2,1,0,2] + x[2,3,2,1] <= 1
 move_2_1_32_11: x[2,1,1,2] + x[2,3,2,1] <= 1
 move_2_1_32_13: x[2,1,3,2] + x[2,3,2,1] <= 1
 move_2_1_32_14: x[2,1,4,2] + x[2,3,2,1] <= 1
 move_2_1_32_20: x[2,2,0,2] + x[2,3,2,1] <= 1
 move_2_1_32_24: x[2,2,4,2] + x[2,3,2,1] <= 1
 move_2_1_32_40: x[2,3,2,1] + x[2,4,0,2] <= 1
 move_2_1_32_44: x[2,3,2,1] + x[2,4,4,2] <= 1
 move_2_1_33_00: x[2,0,0,2] + x[2,3,3,1] <= 1
 move_2_1_33_01: x[2,0,1,2] + x[2,3,3,1] <= 1
 move_2_1_33_02: x[2,0,2,2] + x[2,3,3,1] <= 1
 move_2_1_33_03: x[2,0,3,2] + x[2,3,3,1] <= 1
 move_2_1_33_04: x[2,0,4,2] + x[2,3,3,1] <= 1
 move_2_1_33_10: x[2,1,0,2] + x[2,3,3,1] <= 1
 move_2_1_33_11: x[2,1,1,2] + x[2,3,3,1] <= 1
 move_2_1_33_12: x[2,1,2,2] + x[2,3,3,1] <= 1
 move_2_1_33_14: x[2,1,4,2] + x[2,3,3,1] <= 1
 move_2_1_33_20: x[2,2,0,2] + x[2,3,3,1] <= 1
 move_2_1_33_21: x[2,2,1,2] + x[2,3,3,1] <= 1
 move_2_1_33_30: x[2,3,0,2] + x[2,3,3,1] <= 1
 move_2_1_33_40: x[2,3,3,1] + x[2,4,0,2] <= 1
 move_2_1_33_41: x[2,3,3,1] + x[2,4,1,2] <= 1
 move_2_1_34_00: x[2,0,0,2] + x[2,3,4,1] <= 1
 move_2_1_34_01: x[2,0,1,2] + x[2,3,4,1] <= 1
 move_2_1_34_02: x[2,0,2,2] + x[2,3,4,1] <= 1
 move_2_1_34_03: x[2,0,3,2] + x[2,3,4,1] <= 1
 move_2_1_34_04: x[2,0,4,2] + x[2,3,4,1] <= 1
 move_2_1_34_10: x[2,1,0,2] + x[2,3,4,1] <= 1
 move_2_1_34_11: x[2,1,1,2] + x[2,3,4,1] <= 1
 move_2_1_34_12: x[2,1,2,2] + x[2,3,4,1] <= 1
 move_2_1_34_13: x[2,1,3,2] + x[2,3,4,1] <= 1
 move_2_1_34_20: x[2,2,0,2] + x[2,3,4,1] <= 1
 move_2_1_34_21: x[2,2,1,2] + x[2,3,4,1] <= 1
 move_2_1_34_22: x[2,2,2,2] + x[2,3,4,1] <= 1
 move_2_1_34_30: x[2,3,0,2] + x[2,3,4,1] <= 1
 move_2_1_34_31: x[2,3,1,2] + x[2,3,4,1] <= 1
 move_2_1_34_40: x[2,3,4,1] + x[2,4,0,2] <= 1
 move_2_1_34_41: x[2,3,4,1] + x[2,4,1,2] <= 1
 move_2_1_34_42: x[2,3,4,1] + x[2,4,2,2] <= 1
 move_2_1_40_00: x[2,0,0,2] + x[2,4,0,1] <= 1
 move_2_1_40_01: x[2,0,1,2] + x[2,4,0,1] <= 1
 move_2_1_40_02: x[2,0,2,2] + x[2,4,0,1] <= 1
 move_2_1_40_03: x[2,0,3,2] + x[2,4,0,1] <= 1
 move_2_1_40_04: x[2,0,4,2] + x[2,4,0,1] <= 1
 move_2_1_40_10: x[2,1,0,2] + x[2,4,0,1] <= 1
 move_2_1_40_11: x[2,1,1,2] + x[2,4,0,1] <= 1
 move_2_1_40_12: x[2,1,2,2] + x[2,4,0,1] <= 1
 move_2_1_40_13: x[2,1,3,2] + x[2,4,0,1] <= 1
 move_2_1_40_14: x[2,1,4,2] + x[2,4,0,1] <= 1
 move_2_1_40_21: x[2,2,1,2] + x[2,4,0,1] <= 1
 move_2_1_40_22: x[2,2,2,2] + x[2,4,0,1] <= 1
 move_2_1_40_23: x[2,2,3,2] + x[2,4,0,1] <= 1
 move_2_1_40_24: x[2,2,4,2] + x[2,4,0,1] <= 1
 move_2_1_40_32: x[2,3,2,2] + x[2,4,0,1] <= 1
 move_2_1_40_33: x[2,3,3,2] + x[2,4,0,1] <= 1
 move_2_1_40_34: x[2,3,4,2] + x[2,4,0,1] <= 1
 move_2_1_40_43: x[2,4,0,1] + x[2,4,3,2] <= 1
 move_2_1_40_44: x[2,4,0,1] + x[2,4,4,2] <= 1
 move_2_1_41_00: x[2,0,0,2] + x[2,4,1,1] <= 1
 move_2_1_41_01: x[2,0,1,2] + x[2,4,1,1] <= 1
 move_2_1_41_02: x[2,0,2,2] + x[2,4,1,1] <= 1
 move_2_1_41_03: x[2,0,3,2] + x[2,4,1,1] <= 1
 move_2_1_41_04: x[2,0,4,2] + x[2,4,1,1] <= 1
 move_2_1_41_10: x[2,1,0,2] + x[2,4,1,1] <= 1
 move_2_1_41_11: x[2,1,1,2] + x[2,4,1,1] <= 1
 move_2_1_41_12: x[2,1,2,2] + x[2,4,1,1] <= 1
 move_2_1_41_13: x[2,1,3,2] + x[2,4,1,1] <= 1
 move_2_1_41_14: x[2,1,4,2] + x[2,4,1,1] <= 1
 move_2_1_41_20: x[2,2,0,2] + x[2,4,1,1] <= 1
 move_2_1_41_22: x[2,2,2,2] + x[2,4,1,1] <= 1
 move_2_1_41_23: x[2,2,3,2] + x[2,4,1,1] <= 1
 move_2_1_41_24: x[2,2,4,2] + x[2,4,1,1] <= 1
 move_2_1_41_33: x[2,3,3,2] + x[2,4,1,1] <= 1
 move_2_1_41_34: x[2,3,4,2] + x[2,4,1,1] <= 1
 move_2_1_41_44: x[2,4,1,1] + x[2,4,4,2] <= 1
 move_2_1_42_00: x[2,0,0,2] + x[2,4,2,1] <= 1
 move_2_1_42_01: x[2,0,1,2] + x[2,4,2,1] <= 1
 move_2_1_42_02: x[2,0,2,2] + x[2,4,2,1] <= 1
 move_2_1_42_03: x[2,0,3,2] + x[2,4,2,1] <= 1
 move_2_1_42_04: x[2,0,4,2] + x[2,4,2,1] <= 1
 move_2_1_42_10: x[2,1,0,2] + x[2,4,2,1] <= 1
 move_2_1_42_11: x[2,1,1,2] + x[2,4,2,1] <= 1
 move_2_1_42_12: x[2,1,2,2] + x[2,4,2,1] <= 1
 move_2_1_42_13: x[2,1,3,2] + x[2,4,2,1] <= 1
 move_2_1_42_14: x[2,1,4,2] + x[2,4,2,1] <= 1
 move_2_1_42_20: x[2,2,0,2] + x[2,4,2,1] <= 1
 move_2_1_42_21: x[2,2,1,2] + x[2,4,2,1] <= 1
 move_2_1_42_23: x[2,2,3,2] + x[2,4,2,1] <= 1
 move_2_1_42_24: x[2,2,4,2] + x[2,4,2,1] <= 1
 move_2_1_42_30: x[2,3,0,2] + x[2,4,2,1] <= 1
 move_2_1_42_34: x[2,3,4,2] + x[2,4,2,1] <= 1
 move_2_1_43_00: x[2,0,0,2] + x[2,4,3,1] <= 1
 move_2_1_43_01: x[2,0,1,2] + x[2,4,3,1] <= 1
 move_2_1_43_02: x[2,0,2,2] + x[2,4,3,1] <= 1
 move_2_1_43_03: x[2,0,3,2] + x[2,4,3,1] <= 1
 move_2_1_43_04: x[2,0,4,2] + x[2,4,3,1] <= 1
 move_2_1_43_10: x[2,1,0,2] + x[2,4,3,1] <= 1
 move_2_1_43_11: x[2,1,1,2] + x[2,4,3,1] <= 1
 move_2_1_43_12: x[2,1,2,2] + x[2,4,3,1] <= 1
 move_2_1_43_13: x[2,1,3,2] + x[2,4,3,1] <= 1
 move_2_1_43_14: x[2,1,4,2] + x[2,4,3,1] <= 1
 move_2_1_43_20: x[2,2,0,2] + x[2,4,3,1] <= 1
 move_2_1_43_21: x[2,2,1,2] + x[2,4,3,1] <= 1
 move_2_1_43_22: x[2,2,2,2] + x[2,4,3,1] <= 1
 move_2_1_43_24: x[2,2,4,2] + x[2,4,3,1] <= 1
 move_2_1_43_30: x[2,3,0,2] + x[2,4,3,1] <= 1
 move_2_1_43_31: x[2,3,1,2] + x[2,4,3,1] <= 1
 move_2_1_43_40: x[2,4,0,2] + x[2,4,3,1] <= 1
 move_2_1_44_00: x[2,0,0,2] + x[2,4,4,1] <= 1
 move_2_1_44_01: x[2,0,1,2] + x[2,4,4,1] <= 1
 move_2_1_44_02: x[2,0,2,2] + x[2,4,4,1] <= 1
 move_2_1_44_03: x[2,0,3,2] + x[2,4,4,1] <= 1
 move_2_1_44_04: x[2,0,4,2] + x[2,4,4,1] <= 1
 move_2_1_44_10: x[2,1,0,2] + x[2,4,4,1] <= 1
 move_2_1_44_11: x[2,1,1,2] + x[2,4,4,1] <= 1
 move_2_1_44_12: x[2,1,2,2] + x[2,4,4,1] <= 1
 move_2_1_44_13: x[2,1,3,2] + x[2,4,4,1] <= 1
 move_2_1_44_14: x[2,1,4,2] + x[2,4,4,1] <= 1
 move_2_1_44_20: x[2,2,0,2] + x[2,4,4,1] <= 1
 move_2_1_44_21: x[2,2,1,2] + x[2,4,4,1] <= 1
 move_2_1_44_22: x[2,2,2,2] + x[2,4,4,1] <= 1
 move_2_1_44_23: x[2,2,3,2] + x[2,4,4,1] <= 1
 move_2_1_44_30: x[2,3,0,2] + x[2,4,4,1] <= 1
 move_2_1_44_31: x[2,3,1,2] + x[2,4,4,1] <= 1
 move_2_1_44_32: x[2,3,2,2] + x[2,4,4,1] <= 1
 move_2_1_44_40: x[2,4,0,2] + x[2,4,4,1] <= 1
 move_2_1_44_41: x[2,4,1,2] + x[2,4,4,1] <= 1
 move_2_2_00_03: x[2,0,0,2] + x[2,0,3,3] <= 1
 move_2_2_00_04: x[2,0,0,2] + x[2,0,4,3] <= 1
 move_2_2_00_12: x[2,0,0,2] + x[2,1,2,3] <= 1
 move_2_2_00_13: x[2,0,0,2] + x[2,1,3,3] <= 1
 move_2_2_00_14: x[2,0,0,2] + x[2,1,4,3] <= 1
 move_2_2_00_21: x[2,0,0,2] + x[2,2,1,3] <= 1
 move_2_2_00_22: x[2,0,0,2] + x[2,2,2,3] <= 1
 move_2_2_00_23: x[2,0,0,2] + x[2,2,3,3] <= 1
 move_2_2_00_24: x[2,0,0,2] + x[2,2,4,3] <= 1
 move_2_2_00_30: x[2,0,0,2] + x[2,3,0,3] <= 1
 move_2_2_00_31: x[2,0,0,2] + x[2,3,1,3] <= 1
 move_2_2_00_32: x[2,0,0,2] + x[2,3,2,3] <= 1
 move_2_2_00_33: x[2,0,0,2] + x[2,3,3,3] <= 1
 move_2_2_00_34: x[2,0,0,2] + x[2,3,4,3] <= 1
 move_2_2_00_40: x[2,0,0,2] + x[2,4,0,3] <= 1
 move_2_2_00_41: x[2,0,0,2] + x[2,4,1,3] <= 1
 move_2_2_00_42: x[2,0,0,2] + x[2,4,2,3] <= 1
 move_2_2_00_43: x[2,0,0,2] + x[2,4,3,3] <= 1
 move_2_2_00_44: x[2,0,0,2] + x[2,4,4,3] <= 1
 move_2_2_01_04: x[2,0,1,2] + x[2,0,4,3] <= 1
 move_2_2_01_13: x[2,0,1,2] + x[2,1,3,3] <= 1
 move_2_2_01_14: x[2,0,1,2] + x[2,1,4,3] <= 1
 move_2_2_01_20: x[2,0,1,2] + x[2,2,0,3] <= 1
 move_2_2_01_22: x[2,0,1,2] + x[2,2,2,3] <= 1
 move_2_2_01_23: x[2,0,1,2] + x[2,2,3,3] <= 1
 move_2_2_01_24: x[2,0,1,2] + x[2,2,4,3] <= 1
 move_2_2_01_30: x[2,0,1,2] + x[2,3,0,3] <= 1
 move_2_2_01_31: x[2,0,1,2] + x[2,3,1,3] <= 1
 move_2_2_01_32: x[2,0,1,2] + x[2,3,2,3] <= 1
 move_2_2_01_33: x[2,0,1,2] + x[2,3,3,3] <= 1
 move_2_2_01_34: x[2,0,1,2] + x[2,3,4,3] <= 1
 move_2_2_01_40: x[2,0,1,2] + x[2,4,0,3] <= 1
 move_2_2_01_41: x[2,0,1,2] + x[2,4,1,3] <= 1
 move_2_2_01_42: x[2,0,1,2] + x[2,4,2,3] <= 1
 move_2_2_01_43: x[2,0,1,2] + x[2,4,3,3] <= 1
 move_2_2_01_44: x[2,0,1,2] + x[2,4,4,3] <= 1
 move_2_2_02_10: x[2,0,2,2] + x[2,1,0,3] <= 1
 move_2_2_02_14: x[2,0,2,2] + x[2,1,4,3] <= 1
 move_2_2_02_20: x[2,0,2,2] + x[2,2,0,3] <= 1
 move_2_2_02_21: x[2,0,2,2] + x[2,2,1,3] <= 1
 move_2_2_02_23: x[2,0,2,2] + x[2,2,3,3] <= 1
 move_2_2_02_24: x[2,0,2,2] + x[2,2,4,3] <= 1
 move_2_2_02_30: x[2,0,2,2] + x[2,3,0,3] <= 1
 move_2_2_02_31: x[2,0,2,2] + x[2,3,1,3] <= 1
 move_2_2_02_32: x[2,0,2,2] + x[2,3,2,3] <= 1
 move_2_2_02_33: x[2,0,2,2] + x[2,3,3,3] <= 1
 move_2_2_02_34: x[2,0,2,2] + x[2,3,4,3] <= 1
 move_2_2_02_40: x[2,0,2,2] + x[2,4,0,3] <= 1
 move_2_2_02_41: x[2,0,2,2] + x[2,4,1,3] <= 1
 move_2_2_02_42: x[2,0,2,2] + x[2,4,2,3] <= 1
 move_2_2_02_43: x[2,0,2,2] + x[2,4,3,3] <= 1
 move_2_2_02_44: x[2,0,2,2] + x[2,4,4,3] <= 1
 move_2_2_03_00: x[2,0,0,3] + x[2,0,3,2] <= 1
 move_2_2_03_10: x[2,0,3,2] + x[2,1,0,3] <= 1
 move_2_2_03_11: x[2,0,3,2] + x[2,1,1,3] <= 1
 move_2_2_03_20: x[2,0,3,2] + x[2,2,0,3] <= 1
 move_2_2_03_21: x[2,0,3,2] + x[2,2,1,3] <= 1
 move_2_2_03_22: x[2,0,3,2] + x[2,2,2,3] <= 1
 move_2_2_03_24: x[2,0,3,2] + x[2,2,4,3] <= 1
 move_2_2_03_30: x[2,0,3,2] + x[2,3,0,3] <= 1
 move_2_2_03_31: x[2,0,3,2] + x[2,3,1,3] <= 1
 move_2_2_03_32: x[2,0,3,2] + x[2,3,2,3] <= 1
 move_2_2_03_33: x[2,0,3,2] + x[2,3,3,3] <= 1
 move_2_2_03_34: x[2,0,3,2] + x[2,3,4,3] <= 1
 move_2_2_03_40: x[2,0,3,2] + x[2,4,0,3] <= 1
 move_2_2_03_41: x[2,0,3,2] + x[2,4,1,3] <= 1
 move_2_2_03_42: x[2,0,3,2] + x[2,4,2,3] <= 1
 move_2_2_03_43: x[2,0,3,2] + x[2,4,3,3] <= 1
 move_2_2_03_44: x[2,0,3,2] + x[2,4,4,3] <= 1
 move_2_2_04_00: x[2,0,0,3] + x[2,0,4,2] <= 1
 move_2_2_04_01: x[2,0,1,3] + x[2,0,4,2] <= 1
 move_2_2_04_10: x[2,0,4,2] + x[2,1,0,3] <= 1
 move_2_2_04_11: x[2,0,4,2] + x[2,1,1,3] <= 1
 move_2_2_04_12: x[2,0,4,2] + x[2,1,2,3] <= 1
 move_2_2_04_20: x[2,0,4,2] + x[2,2,0,3] <= 1
 move_2_2_04_21: x[2,0,4,2] + x[2,2,1,3] <= 1
 move_2_2_04_22: x[2,0,4,2] + x[2,2,2,3] <= 1
 move_2_2_04_23: x[2,0,4,2] + x[2,2,3,3] <= 1
 move_2_2_04_30: x[2,0,4,2] + x[2,3,0,3] <= 1
 move_2_2_04_31: x[2,0,4,2] + x[2,3,1,3] <= 1
 move_2_2_04_32: x[2,0,4,2] + x[2,3,2,3] <= 1
 move_2_2_04_33: x[2,0,4,2] + x[2,3,3,3] <= 1
 move_2_2_04_34: x[2,0,4,2] + x[2,3,4,3] <= 1
 move_2_2_04_40: x[2,0,4,2] + x[2,4,0,3] <= 1
 move_2_2_04_41: x[2,0,4,2] + x[2,4,1,3] <= 1
 move_2_2_04_42: x[2,0,4,2] + x[2,4,2,3] <= 1
 move_2_2_04_43: x[2,0,4,2] + x[2,4,3,3] <= 1
 move_2_2_04_44: x[2,0,4,2] + x[2,4,4,3] <= 1
 move_2_2_10_02: x[2,0,2,3] + x[2,1,0,2] <= 1
 move_2_2_10_03: x[2,0,3,3] + x[2,1,0,2] <= 1
 move_2_2_10_04: x[2,0,4,3] + x[2,1,0,2] <= 1
 move_2_2_10_13: x[2,1,0,2] + x[2,1,3,3] <= 1
 move_2_2_10_14: x[2,1,0,2] + x[2,1,4,3] <= 1
 move_2_2_10_22: x[2,1,0,2] + x[2,2,2,3] <= 1
 move_2_2_10_23: x[2,1,0,2] + x[2,2,3,3] <= 1
 move_2_2_10_24: x[2,1,0,2] + x[2,2,4,3] <= 1
 move_2_2_10_31: x[2,1,0,2] + x[2,3,1,3] <= 1
 move_2_2_10_32: x[2,1,0,2] + x[2,3,2,3] <= 1
 move_2_2_10_33: x[2,1,0,2] + x[2,3,3,3] <= 1
 move_2_2_10_34: x[2,1,0,2] + x[2,3,4,3] <= 1
 move_2_2_10_40: x[2,1,0,2] + x[2,4,0,3] <= 1
 move_2_2_10_41: x[2,1,0,2] + x[2,4,1,3] <= 1
 move_2_2_10_42: x[2,1,0,2] + x[2,4,2,3] <= 1
 move_2_2_10_43: x[2,1,0,2] + x[2,4,3,3] <= 1
 move_2_2_10_44: x[2,1,0,2] + x[2,4,4,3] <= 1
 move_2_2_11_03: x[2,0,3,3] + x[2,1,1,2] <= 1
 move_2_2_11_04: x[2,0,4,3] + x[2,1,1,2] <= 1
 move_2_2_11_14: x[2,1,1,2] + x[2,1,4,3] <= 1
 move_2_2_11_23: x[2,1,1,2] + x[2,2,3,3] <= 1
 move_2_2_11_24: x[2,1,1,2] + x[2,2,4,3] <= 1
 move_2_2_11_30: x[2,1,1,2] + x[2,3,0,3] <= 1
 move_2_2_11_32: x[2,1,1,2] + x[2,3,2,3] <= 1
 move_2_2_11_33: x[2,1,1,2] + x[2,3,3,3] <= 1
 move_2_2_11_34: x[2,1,1,2] + x[2,3,4,3] <= 1
 move_2_2_11_40: x[2,1,1,2] + x[2,4,0,3] <= 1
 move_2_2_11_41: x[2,1,1,2] + x[2,4,1,3] <= 1
 move_2_2_11_42: x[2,1,1,2] + x[2,4,2,3] <= 1
 move_2_2_11_43: x[2,1,1,2] + x[2,4,3,3] <= 1
 move_2_2_11_44: x[2,1,1,2] + x[2,4,4,3] <= 1
 move_2_2_12_00: x[2,0,0,3] + x[2,1,2,2] <= 1
 move_2_2_12_04: x[2,0,4,3] + x[2,1,2,2] <= 1
 move_2_2_12_20: x[2,1,2,2] + x[2,2,0,3] <= 1
 move_2_2_12_24: x[2,1,2,2] + x[2,2,4,3] <= 1
 move_2_2_12_30: x[2,1,2,2] + x[2,3,0,3] <= 1
 move_2_2_12_31: x[2,1,2,2] + x[2,3,1,3] <= 1
 move_2_2_12_33: x[2,1,2,2] + x[2,3,3,3] <= 1
 move_2_2_12_34: x[2,1,2,2] + x[2,3,4,3] <= 1
 move_2_2_12_40: x[2,1,2,2] + x[2,4,0,3] <= 1
 move_2_2_12_41: x[2,1,2,2] + x[2,4,1,3] <= 1
 move_2_2_12_42: x[2,1,2,2] + x[2,4,2,3] <= 1
 move_2_2_12_43: x[2,1,2,2] + x[2,4,3,3] <= 1
 move_2_2_12_44: x[2,1,2,2] + x[2,4,4,3] <= 1
 move_2_2_13_00: x[2,0,0,3] + x[2,1,3,2] <= 1
 move_2_2_13_01: x[2,0,1,3] + x[2,1,3,2] <= 1
 move_2_2_13_10: x[2,1,0,3] + x[2,1,3,2] <= 1
 move_2_2_13_20: x[2,1,3,2] + x[2,2,0,3] <= 1
 move_2_2_13_21: x[2,1,3,2] + x[2,2,1,3] <= 1
 move_2_2_13_30: x[2,1,3,2] + x[2,3,0,3] <= 1
 move_2_2_13_31: x[2,1,3,2] + x[2,3,1,3] <= 1
 move_2_2_13_32: x[2,1,3,2] + x[2,3,2,3] <= 1
 move_2_2_13_34: x[2,1,3,2] + x[2,3,4,3] <= 1
 move_2_2_13_40: x[2,1,3,2] + x[2,4,0,3] <= 1
 move_2_2_13_41: x[2,1,3,2] + x[2,4,1,3] <= 1
 move_2_2_13_42: x[2,1,3,2] + x[2,4,2,3] <= 1
 move_2_2_13_43: x[2,1,3,2] + x[2,4,3,3] <= 1
 move_2_2_13_44: x[2,1,3,2] + x[2,4,4,3] <= 1
 move_2_2_14_00: x[2,0,0,3] + x[2,1,4,2] <= 1
 move_2_2_14_01: x[2,0,1,3] + x[2,1,4,2] <= 1
 move_2_2_14_02: x[2,0,2,3] + x[2,1,4,2] <= 1
 move_2_2_14_10: x[2,1,0,3] + x[2,1,4,2] <= 1
 move_2_2_14_11: x[2,1,1,3] + x[2,1,4,2] <= 1
 move_2_2_14_20: x[2,1,4,2] + x[2,2,0,3] <= 1
 move_2_2_14_21: x[2,1,4,2] + x[2,2,1,3] <= 1
 move_2_2_14_22: x[2,1,4,2] + x[2,2,2,3] <= 1
 move_2_2_14_30: x[2,1,4,2] + x[2,3,0,3] <= 1
 move_2_2_14_31: x[2,1,4,2] + x[2,3,1,3] <= 1
 move_2_2_14_32: x[2,1,4,2] + x[2,3,2,3] <= 1
 move_2_2_14_33: x[2,1,4,2] + x[2,3,3,3] <= 1
 move_2_2_14_40: x[2,1,4,2] + x[2,4,0,3] <= 1
 move_2_2_14_41: x[2,1,4,2] + x[2,4,1,3] <= 1
 move_2_2_14_42: x[2,1,4,2] + x[2,4,2,3] <= 1
 move_2_2_14_43: x[2,1,4,2] + x[2,4,3,3] <= 1
 move_2_2_14_44: x[2,1,4,2] + x[2,4,4,3] <= 1
 move_2_2_20_01: x[2,0,1,3] + x[2,2,0,2] <= 1
 move_2_2_20_02: x[2,0,2,3] + x[2,2,0,2] <= 1
 move_2_2_20_03: x[2,0,3,3] + x[2,2,0,2] <= 1
 move_2_2_20_04: x[2,0,4,3] + x[2,2,0,2] <= 1
 move_2_2_20_12: x[2,1,2,3] + x[2,2,0,2] <= 1
 move_2_2_20_13: x[2,1,3,3] + x[2,2,0,2] <= 1
 move_2_2_20_14: x[2,1,4,3] + x[2,2,0,2] <= 1
 move_2_2_20_23: x[2,2,0,2] + x[2,2,3,3] <= 1
 move_2_2_20_24: x[2,2,0,2] + x[2,2,4,3] <= 1
 move_2_2_20_32: x[2,2,0,2] + x[2,3,2,3] <= 1
 move_2_2_20_33: x[2,2,0,2] + x[2,3,3,3] <= 1
 move_2_2_20_34: x[2,2,0,2] + x[2,3,4,3] <= 1
 move_2_2_20_41: x[2,2,0,2] + x[2,4,1,3] <= 1
 move_2_2_20_42: x[2,2,0,2] + x[2,4,2,3] <= 1
 move_2_2_20_43: x[2,2,0,2] + x[2,4,3,3] <= 1
 move_2_2_20_44: x[2,2,0,2] + x[2,4,4,3] <= 1
 move_2_2_21_00: x[2,0,0,3] + x[2,2,1,2] <= 1
 move_2_2_21_02: x[2,0,2,3] + x[2,2,1,2] <= 1
 move_2_2_21_03: x[2,0,3,3] + x[2,2,1,2] <= 1
 move_2_2_21_04: x[2,0,4,3] + x[2,2,1,2] <= 1
 move_2_2_21_13: x[2,1,3,3] + x[2,2,1,2] <= 1
 move_2_2_21_14: x[2,1,4,3] + x[2,2,1,2] <= 1
 move_2_2_21_24: x[2,2,1,2] + x[2,2,4,3] <= 1
 move_2_2_21_33: x[2,2,1,2] + x[2,3,3,3] <= 1
 move_2_2_21_34: x[2,2,1,2] + x[2,3,4,3] <= 1
 move_2_2_21_40: x[2,2,1,2] + x[2,4,0,3] <= 1
 move_2_2_21_42: x[2,2,1,2] + x[2,4,2,3] <= 1
 move_2_2_21_43: x[2,2,1,2] + x[2,4,3,3] <= 1
 move_2_2_21_44: x[2,2,1,2] + x[2,4,4,3] <= 1
 move_2_2_22_00: x[2,0,0,3] + x[2,2,2,2] <= 1
 move_2_2_22_01: x[2,0,1,3] + x[2,2,2,2] <= 1
 move_2_2_22_03: x[2,0,3,3] + x[2,2,2,2] <= 1
 move_2_2_22_04: x[2,0,4,3] + x[2,2,2,2] <= 1
 move_2_2_22_10: x[2,1,0,3] + x[2,2,2,2] <= 1
 move_2_2_22_14: x[2,1,4,3] + x[2,2,2,2] <= 1
 move_2_2_22_30: x[2,2,2,2] + x[2,3,0,3] <= 1
 move_2_2_22_34: x[2,2,2,2] + x[2,3,4,3] <= 1
 move_2_2_22_40: x[2,2,2,2] + x[2,4,0,3] <= 1
 move_2_2_22_41: x[2,2,2,2] + x[2,4,1,3] <= 1
 move_2_2_22_43: x[2,2,2,2] + x[2,4,3,3] <= 1
 move_2_2_22_44: x[2,2,2,2] + x[2,4,4,3] <= 1
 move_2_2_23_00: x[2,0,0,3] + x[2,2,3,2] <= 1
 move_2_2_23_01: x[2,0,1,3] + x[2,2,3,2] <= 1
 move_2_2_23_02: x[2,0,2,3] + x[2,2,3,2] <= 1
 move_2_2_23_04: x[2,0,4,3] + x[2,2,3,2] <= 1
 move_2_2_23_10: x[2,1,0,3] + x[2,2,3,2] <= 1
 move_2_2_23_11: x[2,1,1,3] + x[2,2,3,2] <= 1
 move_2_2_23_20: x[2,2,0,3] + x[2,2,3,2] <= 1
 move_2_2_23_30: x[2,2,3,2] + x[2,3,0,3] <= 1
 move_2_2_23_31: x[2,2,3,2] + x[2,3,1,3] <= 1
 move_2_2_23_40: x[2,2,3,2] + x[2,4,0,3] <= 1
 move_2_2_23_41: x[2,2,3,2] + x[2,4,1,3] <= 1
 move_2_2_23_42: x[2,2,3,2] + x[2,4,2,3] <= 1
 move_2_2_23_44: x[2,2,3,2] + x[2,4,4,3] <= 1
 move_2_2_24_00: x[2,0,0,3] + x[2,2,4,2] <= 1
 move_2_2_24_01: x[2,0,1,3] + x[2,2,4,2] <= 1
 move_2_2_24_02: x[2,0,2,3] + x[2,2,4,2] <= 1
 move_2_2_24_03: x[2,0,3,3] + x[2,2,4,2] <= 1
 move_2_2_24_10: x[2,1,0,3] + x[2,2,4,2] <= 1
 move_2_2_24_11: x[2,1,1,3] + x[2,2,4,2] <= 1
 move_2_2_24_12: x[2,1,2,3] + x[2,2,4,2] <= 1
 move_2_2_24_20: x[2,2,0,3] + x[2,2,4,2] <= 1
 move_2_2_24_21: x[2,2,1,3] + x[2,2,4,2] <= 1
 move_2_2_24_30: x[2,2,4,2] + x[2,3,0,3] <= 1
 move_2_2_24_31: x[2,2,4,2] + x[2,3,1,3] <= 1
 move_2_2_24_32: x[2,2,4,2] + x[2,3,2,3] <= 1
 move_2_2_24_40: x[2,2,4,2] + x[2,4,0,3] <= 1
 move_2_2_24_41: x[2,2,4,2] + x[2,4,1,3] <= 1
 move_2_2_24_42: x[2,2,4,2] + x[2,4,2,3] <= 1
 move_2_2_24_43: x[2,2,4,2] + x[2,4,3,3] <= 1
 move_2_2_30_00: x[2,0,0,3] + x[2,3,0,2] <= 1
 move_2_2_30_01: x[2,0,1,3] + x[2,3,0,2] <= 1
 move_2_2_30_02: x[2,0,2,3] + x[2,3,0,2] <= 1
 move_2_2_30_03: x[2,0,3,3] + x[2,3,0,2] <= 1
 move_2_2_30_04: x[2,0,4,3] + x[2,3,0,2] <= 1
 move_2_2_30_11: x[2,1,1,3] + x[2,3,0,2] <= 1
 move_2_2_30_12: x[2,1,2,3] + x[2,3,0,2] <= 1
 move_2_2_30_13: x[2,1,3,3] + x[2,3,0,2] <= 1
 move_2_2_30_14: x[2,1,4,3] + x[2,3,0,2] <= 1
 move_2_2_30_22: x[2,2,2,3] + x[2,3,0,2] <= 1
 move_2_2_30_23: x[2,2,3,3] + x[2,3,0,2] <= 1
 move_2_2_30_24: x[2,2,4,3] + x[2,3,0,2] <= 1
 move_2_2_30_33: x[2,3,0,2] + x[2,3,3,3] <= 1
 move_2_2_30_34: x[2,3,0,2] + x[2,3,4,3] <= 1
 move_2_2_30_42: x[2,3,0,2] + x[2,4,2,3] <= 1
 move_2_2_30_43: x[2,3,0,2] + x[2,4,3,3] <= 1
 move_2_2_30_44: x[2,3,0,2] + x[2,4,4,3] <= 1
 move_2_2_31_00: x[2,0,0,3] + x[2,3,1,2] <= 1
 move_2_2_31_01: x[2,0,1,3] + x[2,3,1,2] <= 1
 move_2_2_31_02: x[2,0,2,3] + x[2,3,1,2] <= 1
 move_2_2_31_03: x[2,0,3,3] + x[2,3,1,2] <= 1
 move_2_2_31_04: x[2,0,4,3] + x[2,3,1,2] <= 1
 move_2_2_31_10: x[2,1,0,3] + x[2,3,1,2] <= 1
 move_2_2_31_12: x[2,1,2,3] + x[2,3,1,2] <= 1
 move_2_2_31_13: x[2,1,3,3] + x[2,3,1,2] <= 1
 move_2_2_31_14: x[2,1,4,3] + x[2,3,1,2] <= 1
 move_2_2_31_23: x[2,2,3,3] + x[2,3,1,2] <= 1
 move_2_2_31_24: x[2,2,4,3] + x[2,3,1,2] <= 1
 move_2_2_31_34: x[2,3,1,2] + x[2,3,4,3] <= 1
 move_2_2_31_43: x[2,3,1,2] + x[2,4,3,3] <= 1
 move_2_2_31_44: x[2,3,1,2] + x[2,4,4,3] <= 1
 move_2_2_32_00: x[2,0,0,3] + x[2,3,2,2] <= 1
 move_2_2_32_01: x[2,0,1,3] + x[2,3,2,2] <= 1
 move_2_2_32_02: x[2,0,2,3] + x[2,3,2,2] <= 1
 move_2_2_32_03: x[2,0,3,3] + x[2,3,2,2] <= 1
 move_2_2_32_04: x[2,0,4,3] + x[2,3,2,2] <= 1
 move_2_2_32_10: x[2,1,0,3] + x[2,3,2,2] <= 1
 move_2_2_32_11: x[2,1,1,3] + x[2,3,2,2] <= 1
 move_2_2_32_13: x[2,1,3,3] + x[2,3,2,2] <= 1
 move_2_2_32_14: x[2,1,4,3] + x[2,3,2,2] <= 1
 move_2_2_32_20: x[2,2,0,3] + x[2,3,2,2] <= 1
 move_2_2_32_24: x[2,2,4,3] + x[2,3,2,2] <= 1
 move_2_2_32_40: x[2,3,2,2] + x[2,4,0,3] <= 1
 move_2_2_32_44: x[2,3,2,2] + x[2,4,4,3] <= 1
 move_2_2_33_00: x[2,0,0,3] + x[2,3,3,2] <= 1
 move_2_2_33_01: x[2,0,1,3] + x[2,3,3,2] <= 1
 move_2_2_33_02: x[2,0,2,3] + x[2,3,3,2] <= 1
 move_2_2_33_03: x[2,0,3,3] + x[2,3,3,2] <= 1
 move_2_2_33_04: x[2,0,4,3] + x[2,3,3,2] <= 1
 move_2_2_33_10: x[2,1,0,3] + x[2,3,3,2] <= 1
 move_2_2_33_11: x[2,1,1,3] + x[2,3,3,2] <= 1
 move_2_2_33_12: x[2,1,2,3] + x[2,3,3,2] <= 1
 move_2_2_33_14: x[2,1,4,3] + x[2,3,3,2] <= 1
 move_2_2_33_20: x[2,2,0,3] + x[2,3,3,2] <= 1
 move_2_2_33_21: x[2,2,1,3] + x[2,3,3,2] <= 1
 move_2_2_33_30: x[2,3,0,3] + x[2,3,3,2] <= 1
 move_2_2_33_40: x[2,3,3,2] + x[2,4,0,3] <= 1
 move_2_2_33_41: x[2,3,3,2] + x[2,4,1,3] <= 1
 move_2_2_34_00: x[2,0,0,3] + x[2,3,4,2] <= 1
 move_2_2_34_01: x[2,0,1,3] + x[2,3,4,2] <= 1
 move_2_2_34_02: x[2,0,2,3] + x[2,3,4,2] <= 1
 move_2_2_34_03: x[2,0,3,3] + x[2,3,4,2] <= 1
 move_2_2_34_04: x[2,0,4,3] + x[2,3,4,2] <= 1
 move_2_2_34_10: x[2,1,0,3] + x[2,3,4,2] <= 1
 move_2_2_34_11: x[2,1,1,3] + x[2,3,4,2] <= 1
 move_2_2_34_12: x[2,1,2,3] + x[2,3,4,2] <= 1
 move_2_2_34_13: x[2,1,3,3] + x[2,3,4,2] <= 1
 move_2_2_34_20: x[2,2,0,3] + x[2,3,4,2] <= 1
 move_2_2_34_21: x[2,2,1,3] + x[2,3,4,2] <= 1
 move_2_2_34_22: x[2,2,2,3] + x[2,3,4,2] <= 1
 move_2_2_34_30: x[2,3,0,3] + x[2,3,4,2] <= 1
 move_2_2_34_31: x[2,3,1,3] + x[2,3,4,2] <= 1
 move_2_2_34_40: x[2,3,4,2] + x[2,4,0,3] <= 1
 move_2_2_34_41: x[2,3,4,2] + x[2,4,1,3] <= 1
 move_2_2_34_42: x[2,3,4,2] + x[2,4,2,3] <= 1
 move_2_2_40_00: x[2,0,0,3] + x[2,4,0,2] <= 1
 move_2_2_40_01: x[2,0,1,3] + x[2,4,0,2] <= 1
 move_2_2_40_02: x[2,0,2,3] + x[2,4,0,2] <= 1
 move_2_2_40_03: x[2,0,3,3] + x[2,4,0,2] <= 1
 move_2_2_40_04: x[2,0,4,3] + x[2,4,0,2] <= 1
 move_2_2_40_10: x[2,1,0,3] + x[2,4,0,2] <= 1
 move_2_2_40_11: x[2,1,1,3] + x[2,4,0,2] <= 1
 move_2_2_40_12: x[2,1,2,3] + x[2,4,0,2] <= 1
 move_2_2_40_13: x[2,1,3,3] + x[2,4,0,2] <= 1
 move_2_2_40_14: x[2,1,4,3] + x[2,4,0,2] <= 1
 move_2_2_40_21: x[2,2,1,3] + x[2,4,0,2] <= 1
 move_2_2_40_22: x[2,2,2,3] + x[2,4,0,2] <= 1
 move_2_2_40_23: x[2,2,3,3] + x[2,4,0,2] <= 1
 move_2_2_40_24: x[2,2,4,3] + x[2,4,0,2] <= 1
 move_2_2_40_32: x[2,3,2,3] + x[2,4,0,2] <= 1
 move_2_2_40_33: x[2,3,3,3] + x[2,4,0,2] <= 1
 move_2_2_40_34: x[2,3,4,3] + x[2,4,0,2] <= 1
 move_2_2_40_43: x[2,4,0,2] + x[2,4,3,3] <= 1
 move_2_2_40_44: x[2,4,0,2] + x[2,4,4,3] <= 1
 move_2_2_41_00: x[2,0,0,3] + x[2,4,1,2] <= 1
 move_2_2_41_01: x[2,0,1,3] + x[2,4,1,2] <= 1
 move_2_2_41_02: x[2,0,2,3] + x[2,4,1,2] <= 1
 move_2_2_41_03: x[2,0,3,3] + x[2,4,1,2] <= 1
 move_2_2_41_04: x[2,0,4,3] + x[2,4,1,2] <= 1
 move_2_2_41_10: x[2,1,0,3] + x[2,4,1,2] <= 1
 move_2_2_41_11: x[2,1,1,3] + x[2,4,1,2] <= 1
 move_2_2_41_12: x[2,1,2,3] + x[2,4,1,2] <= 1
 move_2_2_41_13: x[2,1,3,3] + x[2,4,1,2] <= 1
 move_2_2_41_14: x[2,1,4,3] + x[2,4,1,2] <= 1
 move_2_2_41_20: x[2,2,0,3] + x[2,4,1,2] <= 1
 move_2_2_41_22: x[2,2,2,3] + x[2,4,1,2] <= 1
 move_2_2_41_23: x[2,2,3,3] + x[2,4,1,2] <= 1
 move_2_2_41_24: x[2,2,4,3] + x[2,4,1,2] <= 1
 move_2_2_41_33: x[2,3,3,3] + x[2,4,1,2] <= 1
 move_2_2_41_34: x[2,3,4,3] + x[2,4,1,2] <= 1
 move_2_2_41_44: x[2,4,1,2] + x[2,4,4,3] <= 1
 move_2_2_42_00: x[2,0,0,3] + x[2,4,2,2] <= 1
 move_2_2_42_01: x[2,0,1,3] + x[2,4,2,2] <= 1
 move_2_2_42_02: x[2,0,2,3] + x[2,4,2,2] <= 1
 move_2_2_42_03: x[2,0,3,3] + x[2,4,2,2] <= 1
 move_2_2_42_04: x[2,0,4,3] + x[2,4,2,2] <= 1
 move_2_2_42_10: x[2,1,0,3] + x[2,4,2,2] <= 1
 move_2_2_42_11: x[2,1,1,3] + x[2,4,2,2] <= 1
 move_2_2_42_12: x[2,1,2,3] + x[2,4,2,2] <= 1
 move_2_2_42_13: x[2,1,3,3] + x[2,4,2,2] <= 1
 move_2_2_42_14: x[2,1,4,3] + x[2,4,2,2] <= 1
 move_2_2_42_20: x[2,2,0,3] + x[2,4,2,2] <= 1
 move_2_2_42_21: x[2,2,1,3] + x[2,4,2,2] <= 1
 move_2_2_42_23: x[2,2,3,3] + x[2,4,2,2] <= 1
 move_2_2_42_24: x[2,2,4,3] + x[2,4,2,2] <= 1
 move_2_2_42_30: x[2,3,0,3] + x[2,4,2,2] <= 1
 move_2_2_42_34: x[2,3,4,3] + x[2,4,2,2] <= 1
 move_2_2_43_00: x[2,0,0,3] + x[2,4,3,2] <= 1
 move_2_2_43_01: x[2,0,1,3] + x[2,4,3,2] <= 1
 move_2_2_43_02: x[2,0,2,3] + x[2,4,3,2] <= 1
 move_2_2_43_03: x[2,0,3,3] + x[2,4,3,2] <= 1
 move_2_2_43_04: x[2,0,4,3] + x[2,4,3,2] <= 1
 move_2_2_43_10: x[2,1,0,3] + x[2,4,3,2] <= 1
 move_2_2_43_11: x[2,1,1,3] + x[2,4,3,2] <= 1
 move_2_2_43_12: x[2,1,2,3] + x[2,4,3,2] <= 1
 move_2_2_43_13: x[2,1,3,3] + x[2,4,3,2] <= 1
 move_2_2_43_14: x[2,1,4,3] + x[2,4,3,2] <= 1
 move_2_2_43_20: x[2,2,0,3] + x[2,4,3,2] <= 1
 move_2_2_43_21: x[2,2,1,3] + x[2,4,3,2] <= 1
 move_2_2_43_22: x[2,2,2,3] + x[2,4,3,2] <= 1
 move_2_2_43_24: x[2,2,4,3] + x[2,4,3,2] <= 1
 move_2_2_43_30: x[2,3,0,3] + x[2,4,3,2] <= 1
 move_2_2_43_31: x[2,3,1,3] + x[2,4,3,2] <= 1
 move_2_2_43_40: x[2,4,0,3] + x[2,4,3,2] <= 1
 move_2_2_44_00: x[2,0,0,3] + x[2,4,4,2] <= 1
 move_2_2_44_01: x[2,0,1,3] + x[2,4,4,2] <= 1
 move_2_2_44_02: x[2,0,2,3] + x[2,4,4,2] <= 1
 move_2_2_44_03: x[2,0,3,3] + x[2,4,4,2] <= 1
 move_2_2_44_04: x[2,0,4,3] + x[2,4,4,2] <= 1
 move_2_2_44_10: x[2,1,0,3] + x[2,4,4,2] <= 1
 move_2_2_44_11: x[2,1,1,3] + x[2,4,4,2] <= 1
 move_2_2_44_12: x[2,1,2,3] + x[2,4,4,2] <= 1
 move_2_2_44_13: x[2,1,3,3] + x[2,4,4,2] <= 1
 move_2_2_44_14: x[2,1,4,3] + x[2,4,4,2] <= 1
 move_2_2_44_20: x[2,2,0,3] + x[2,4,4,2] <= 1
 move_2_2_44_21: x[2,2,1,3] + x[2,4,4,2] <= 1
 move_2_2_44_22: x[2,2,2,3] + x[2,4,4,2] <= 1
 move_2_2_44_23: x[2,2,3,3] + x[2,4,4,2] <= 1
 move_2_2_44_30: x[2,3,0,3] + x[2,4,4,2] <= 1
 move_2_2_44_31: x[2,3,1,3] + x[2,4,4,2] <= 1
 move_2_2_44_32: x[2,3,2,3] + x[2,4,4,2] <= 1
 move_2_2_44_40: x[2,4,0,3] + x[2,4,4,2] <= 1
 move_2_2_44_41: x[2,4,1,3] + x[2,4,4,2] <= 1
 move_2_3_00_03: x[2,0,0,3] + x[2,0,3,4] <= 1
 move_2_3_00_04: x[2,0,0,3] + x[2,0,4,4] <= 1
 move_2_3_00_12: x[2,0,0,3] + x[2,1,2,4] <= 1
 move_2_3_00_13: x[2,0,0,3] + x[2,1,3,4] <= 1
 move_2_3_00_14: x[2,0,0,3] + x[2,1,4,4] <= 1
 move_2_3_00_21: x[2,0,0,3] + x[2,2,1,4] <= 1
 move_2_3_00_22: x[2,0,0,3] + x[2,2,2,4] <= 1
 move_2_3_00_23: x[2,0,0,3] + x[2,2,3,4] <= 1
 move_2_3_00_24: x[2,0,0,3] + x[2,2,4,4] <= 1
 move_2_3_00_30: x[2,0,0,3] + x[2,3,0,4] <= 1
 move_2_3_00_31: x[2,0,0,3] + x[2,3,1,4] <= 1
 move_2_3_00_32: x[2,0,0,3] + x[2,3,2,4] <= 1
 move_2_3_00_33: x[2,0,0,3] + x[2,3,3,4] <= 1
 move_2_3_00_34: x[2,0,0,3] + x[2,3,4,4] <= 1
 move_2_3_00_40: x[2,0,0,3] + x[2,4,0,4] <= 1
 move_2_3_00_41: x[2,0,0,3] + x[2,4,1,4] <= 1
 move_2_3_00_42: x[2,0,0,3] + x[2,4,2,4] <= 1
 move_2_3_00_43: x[2,0,0,3] + x[2,4,3,4] <= 1
 move_2_3_00_44: x[2,0,0,3] + x[2,4,4,4] <= 1
 move_2_3_01_04: x[2,0,1,3] + x[2,0,4,4] <= 1
 move_2_3_01_13: x[2,0,1,3] + x[2,1,3,4] <= 1
 move_2_3_01_14: x[2,0,1,3] + x[2,1,4,4] <= 1
 move_2_3_01_20: x[2,0,1,3] + x[2,2,0,4] <= 1
 move_2_3_01_22: x[2,0,1,3] + x[2,2,2,4] <= 1
 move_2_3_01_23: x[2,0,1,3] + x[2,2,3,4] <= 1
 move_2_3_01_24: x[2,0,1,3] + x[2,2,4,4] <= 1
 move_2_3_01_30: x[2,0,1,3] + x[2,3,0,4] <= 1
 move_2_3_01_31: x[2,0,1,3] + x[2,3,1,4] <= 1
 move_2_3_01_32: x[2,0,1,3] + x[2,3,2,4] <= 1
 move_2_3_01_33: x[2,0,1,3] + x[2,3,3,4] <= 1
 move_2_3_01_34: x[2,0,1,3] + x[2,3,4,4] <= 1
 move_2_3_01_40: x[2,0,1,3] + x[2,4,0,4] <= 1
 move_2_3_01_41: x[2,0,1,3] + x[2,4,1,4] <= 1
 move_2_3_01_42: x[2,0,1,3] + x[2,4,2,4] <= 1
 move_2_3_01_43: x[2,0,1,3] + x[2,4,3,4] <= 1
 move_2_3_01_44: x[2,0,1,3] + x[2,4,4,4] <= 1
 move_2_3_02_10: x[2,0,2,3] + x[2,1,0,4] <= 1
 move_2_3_02_14: x[2,0,2,3] + x[2,1,4,4] <= 1
 move_2_3_02_20: x[2,0,2,3] + x[2,2,0,4] <= 1
 move_2_3_02_21: x[2,0,2,3] + x[2,2,1,4] <= 1
 move_2_3_02_23: x[2,0,2,3] + x[2,2,3,4] <= 1
 move_2_3_02_24: x[2,0,2,3] + x[2,2,4,4] <= 1
 move_2_3_02_30: x[2,0,2,3] + x[2,3,0,4] <= 1
 move_2_3_02_31: x[2,0,2,3] + x[2,3,1,4] <= 1
 move_2_3_02_32: x[2,0,2,3] + x[2,3,2,4] <= 1
 move_2_3_02_33: x[2,0,2,3] + x[2,3,3,4] <= 1
 move_2_3_02_34: x[2,0,2,3] + x[2,3,4,4] <= 1
 move_2_3_02_40: x[2,0,2,3] + x[2,4,0,4] <= 1
 move_2_3_02_41: x[2,0,2,3] + x[2,4,1,4] <= 1
 move_2_3_02_42: x[2,0,2,3] + x[2,4,2,4] <= 1
 move_2_3_02_43: x[2,0,2,3] + x[2,4,3,4] <= 1
 move_2_3_02_44: x[2,0,2,3] + x[2,4,4,4] <= 1
 move_2_3_03_00: x[2,0,0,4] + x[2,0,3,3] <= 1
 move_2_3_03_10: x[2,0,3,3] + x[2,1,0,4] <= 1
 move_2_3_03_11: x[2,0,3,3] + x[2,1,1,4] <= 1
 move_2_3_03_20: x[2,0,3,3] + x[2,2,0,4] <= 1
 move_2_3_03_21: x[2,0,3,3] + x[2,2,1,4] <= 1
 move_2_3_03_22: x[2,0,3,3] + x[2,2,2,4] <= 1
 move_2_3_03_24: x[2,0,3,3] + x[2,2,4,4] <= 1
 move_2_3_03_30: x[2,0,3,3] + x[2,3,0,4] <= 1
 move_2_3_03_31: x[2,0,3,3] + x[2,3,1,4] <= 1
 move_2_3_03_32: x[2,0,3,3] + x[2,3,2,4] <= 1
 move_2_3_03_33: x[2,0,3,3] + x[2,3,3,4] <= 1
 move_2_3_03_34: x[2,0,3,3] + x[2,3,4,4] <= 1
 move_2_3_03_40: x[2,0,3,3] + x[2,4,0,4] <= 1
 move_2_3_03_41: x[2,0,3,3] + x[2,4,1,4] <= 1
 move_2_3_03_42: x[2,0,3,3] + x[2,4,2,4] <= 1
 move_2_3_03_43: x[2,0,3,3] + x[2,4,3,4] <= 1
 move_2_3_03_44: x[2,0,3,3] + x[2,4,4,4] <= 1
 move_2_3_04_00: x[2,0,0,4] + x[2,0,4,3] <= 1
 move_2_3_04_01: x[2,0,1,4] + x[2,0,4,3] <= 1
 move_2_3_04_10: x[2,0,4,3] + x[2,1,0,4] <= 1
 move_2_3_04_11: x[2,0,4,3] + x[2,1,1,4] <= 1
 move_2_3_04_12: x[2,0,4,3] + x[2,1,2,4] <= 1
 move_2_3_04_20: x[2,0,4,3] + x[2,2,0,4] <= 1
 move_2_3_04_21: x[2,0,4,3] + x[2,2,1,4] <= 1
 move_2_3_04_22: x[2,0,4,3] + x[2,2,2,4] <= 1
 move_2_3_04_23: x[2,0,4,3] + x[2,2,3,4] <= 1
 move_2_3_04_30: x[2,0,4,3] + x[2,3,0,4] <= 1
 move_2_3_04_31: x[2,0,4,3] + x[2,3,1,4] <= 1
 move_2_3_04_32: x[2,0,4,3] + x[2,3,2,4] <= 1
 move_2_3_04_33: x[2,0,4,3] + x[2,3,3,4] <= 1
 move_2_3_04_34: x[2,0,4,3] + x[2,3,4,4] <= 1
 move_2_3_04_40: x[2,0,4,3] + x[2,4,0,4] <= 1
 move_2_3_04_41: x[2,0,4,3] + x[2,4,1,4] <= 1
 move_2_3_04_42: x[2,0,4,3] + x[2,4,2,4] <= 1
 move_2_3_04_43: x[2,0,4,3] + x[2,4,3,4] <= 1
 move_2_3_04_44: x[2,0,4,3] + x[2,4,4,4] <= 1
 move_2_3_10_02: x[2,0,2,4] + x[2,1,0,3] <= 1
 move_2_3_10_03: x[2,0,3,4] + x[2,1,0,3] <= 1
 move_2_3_10_04: x[2,0,4,4] + x[2,1,0,3] <= 1
 move_2_3_10_13: x[2,1,0,3] + x[2,1,3,4] <= 1
 move_2_3_10_14: x[2,1,0,3] + x[2,1,4,4] <= 1
 move_2_3_10_22: x[2,1,0,3] + x[2,2,2,4] <= 1
 move_2_3_10_23: x[2,1,0,3] + x[2,2,3,4] <= 1
 move_2_3_10_24: x[2,1,0,3] + x[2,2,4,4] <= 1
 move_2_3_10_31: x[2,1,0,3] + x[2,3,1,4] <= 1
 move_2_3_10_32: x[2,1,0,3] + x[2,3,2,4] <= 1
 move_2_3_10_33: x[2,1,0,3] + x[2,3,3,4] <= 1
 move_2_3_10_34: x[2,1,0,3] + x[2,3,4,4] <= 1
 move_2_3_10_40: x[2,1,0,3] + x[2,4,0,4] <= 1
 move_2_3_10_41: x[2,1,0,3] + x[2,4,1,4] <= 1
 move_2_3_10_42: x[2,1,0,3] + x[2,4,2,4] <= 1
 move_2_3_10_43: x[2,1,0,3] + x[2,4,3,4] <= 1
 move_2_3_10_44: x[2,1,0,3] + x[2,4,4,4] <= 1
 move_2_3_11_03: x[2,0,3,4] + x[2,1,1,3] <= 1
 move_2_3_11_04: x[2,0,4,4] + x[2,1,1,3] <= 1
 move_2_3_11_14: x[2,1,1,3] + x[2,1,4,4] <= 1
 move_2_3_11_23: x[2,1,1,3] + x[2,2,3,4] <= 1
 move_2_3_11_24: x[2,1,1,3] + x[2,2,4,4] <= 1
 move_2_3_11_30: x[2,1,1,3] + x[2,3,0,4] <= 1
 move_2_3_11_32: x[2,1,1,3] + x[2,3,2,4] <= 1
 move_2_3_11_33: x[2,1,1,3] + x[2,3,3,4] <= 1
 move_2_3_11_34: x[2,1,1,3] + x[2,3,4,4] <= 1
 move_2_3_11_40: x[2,1,1,3] + x[2,4,0,4] <= 1
 move_2_3_11_41: x[2,1,1,3] + x[2,4,1,4] <= 1
 move_2_3_11_42: x[2,1,1,3] + x[2,4,2,4] <= 1
 move_2_3_11_43: x[2,1,1,3] + x[2,4,3,4] <= 1
 move_2_3_11_44: x[2,1,1,3] + x[2,4,4,4] <= 1
 move_2_3_12_00: x[2,0,0,4] + x[2,1,2,3] <= 1
 move_2_3_12_04: x[2,0,4,4] + x[2,1,2,3] <= 1
 move_2_3_12_20: x[2,1,2,3] + x[2,2,0,4] <= 1
 move_2_3_12_24: x[2,1,2,3] + x[2,2,4,4] <= 1
 move_2_3_12_30: x[2,1,2,3] + x[2,3,0,4] <= 1
 move_2_3_12_31: x[2,1,2,3] + x[2,3,1,4] <= 1
 move_2_3_12_33: x[2,1,2,3] + x[2,3,3,4] <= 1
 move_2_3_12_34: x[2,1,2,3] + x[2,3,4,4] <= 1
 move_2_3_12_40: x[2,1,2,3] + x[2,4,0,4] <= 1
 move_2_3_12_41: x[2,1,2,3] + x[2,4,1,4] <= 1
 move_2_3_12_42: x[2,1,2,3] + x[2,4,2,4] <= 1
 move_2_3_12_43: x[2,1,2,3] + x[2,4,3,4] <= 1
 move_2_3_12_44: x[2,1,2,3] + x[2,4,4,4] <= 1
 move_2_3_13_00: x[2,0,0,4] + x[2,1,3,3] <= 1
 move_2_3_13_01: x[2,0,1,4] + x[2,1,3,3] <= 1
 move_2_3_13_10: x[2,1,0,4] + x[2,1,3,3] <= 1
 move_2_3_13_20: x[2,1,3,3] + x[2,2,0,4] <= 1
 move_2_3_13_21: x[2,1,3,3] + x[2,2,1,4] <= 1
 move_2_3_13_30: x[2,1,3,3] + x[2,3,0,4] <= 1
 move_2_3_13_31: x[2,1,3,3] + x[2,3,1,4] <= 1
 move_2_3_13_32: x[2,1,3,3] + x[2,3,2,4] <= 1
 move_2_3_13_34: x[2,1,3,3] + x[2,3,4,4] <= 1
 move_2_3_13_40: x[2,1,3,3] + x[2,4,0,4] <= 1
 move_2_3_13_41: x[2,1,3,3] + x[2,4,1,4] <= 1
 move_2_3_13_42: x[2,1,3,3] + x[2,4,2,4] <= 1
 move_2_3_13_43: x[2,1,3,3] + x[2,4,3,4] <= 1
 move_2_3_13_44: x[2,1,3,3] + x[2,4,4,4] <= 1
 move_2_3_14_00: x[2,0,0,4] + x[2,1,4,3] <= 1
 move_2_3_14_01: x[2,0,1,4] + x[2,1,4,3] <= 1
 move_2_3_14_02: x[2,0,2,4] + x[2,1,4,3] <= 1
 move_2_3_14_10: x[2,1,0,4] + x[2,1,4,3] <= 1
 move_2_3_14_11: x[2,1,1,4] + x[2,1,4,3] <= 1
 move_2_3_14_20: x[2,1,4,3] + x[2,2,0,4] <= 1
 move_2_3_14_21: x[2,1,4,3] + x[2,2,1,4] <= 1
 move_2_3_14_22: x[2,1,4,3] + x[2,2,2,4] <= 1
 move_2_3_14_30: x[2,1,4,3] + x[2,3,0,4] <= 1
 move_2_3_14_31: x[2,1,4,3] + x[2,3,1,4] <= 1
 move_2_3_14_32: x[2,1,4,3] + x[2,3,2,4] <= 1
 move_2_3_14_33: x[2,1,4,3] + x[2,3,3,4] <= 1
 move_2_3_14_40: x[2,1,4,3] + x[2,4,0,4] <= 1
 move_2_3_14_41: x[2,1,4,3] + x[2,4,1,4] <= 1
 move_2_3_14_42: x[2,1,4,3] + x[2,4,2,4] <= 1
 move_2_3_14_43: x[2,1,4,3] + x[2,4,3,4] <= 1
 move_2_3_14_44: x[2,1,4,3] + x[2,4,4,4] <= 1
 move_2_3_20_01: x[2,0,1,4] + x[2,2,0,3] <= 1
 move_2_3_20_02: x[2,0,2,4] + x[2,2,0,3] <= 1
 move_2_3_20_03: x[2,0,3,4] + x[2,2,0,3] <= 1
 move_2_3_20_04: x[2,0,4,4] + x[2,2,0,3] <= 1
 move_2_3_20_12: x[2,1,2,4] + x[2,2,0,3] <= 1
 move_2_3_20_13: x[2,1,3,4] + x[2,2,0,3] <= 1
 move_2_3_20_14: x[2,1,4,4] + x[2,2,0,3] <= 1
 move_2_3_20_23: x[2,2,0,3] + x[2,2,3,4] <= 1
 move_2_3_20_24: x[2,2,0,3] + x[2,2,4,4] <= 1
 move_2_3_20_32: x[2,2,0,3] + x[2,3,2,4] <= 1
 move_2_3_20_33: x[2,2,0,3] + x[2,3,3,4] <= 1
 move_2_3_20_34: x[2,2,0,3] + x[2,3,4,4] <= 1
 move_2_3_20_41: x[2,2,0,3] + x[2,4,1,4] <= 1
 move_2_3_20_42: x[2,2,0,3] + x[2,4,2,4] <= 1
 move_2_3_20_43: x[2,2,0,3] + x[2,4,3,4] <= 1
 move_2_3_20_44: x[2,2,0,3] + x[2,4,4,4] <= 1
 move_2_3_21_00: x[2,0,0,4] + x[2,2,1,3] <= 1
 move_2_3_21_02: x[2,0,2,4] + x[2,2,1,3] <= 1
 move_2_3_21_03: x[2,0,3,4] + x[2,2,1,3] <= 1
 move_2_3_21_04: x[2,0,4,4] + x[2,2,1,3] <= 1
 move_2_3_21_13: x[2,1,3,4] + x[2,2,1,3] <= 1
 move_2_3_21_14: x[2,1,4,4] + x[2,2,1,3] <= 1
 move_2_3_21_24: x[2,2,1,3] + x[2,2,4,4] <= 1
 move_2_3_21_33: x[2,2,1,3] + x[2,3,3,4] <= 1
 move_2_3_21_34: x[2,2,1,3] + x[2,3,4,4] <= 1
 move_2_3_21_40: x[2,2,1,3] + x[2,4,0,4] <= 1
 move_2_3_21_42: x[2,2,1,3] + x[2,4,2,4] <= 1
 move_2_3_21_43: x[2,2,1,3] + x[2,4,3,4] <= 1
 move_2_3_21_44: x[2,2,1,3] + x[2,4,4,4] <= 1
 move_2_3_22_00: x[2,0,0,4] + x[2,2,2,3] <= 1
 move_2_3_22_01: x[2,0,1,4] + x[2,2,2,3] <= 1
 move_2_3_22_03: x[2,0,3,4] + x[2,2,2,3] <= 1
 move_2_3_22_04: x[2,0,4,4] + x[2,2,2,3] <= 1
 move_2_3_22_10: x[2,1,0,4] + x[2,2,2,3] <= 1
 move_2_3_22_14: x[2,1,4,4] + x[2,2,2,3] <= 1
 move_2_3_22_30: x[2,2,2,3] + x[2,3,0,4] <= 1
 move_2_3_22_34: x[2,2,2,3] + x[2,3,4,4] <= 1
 move_2_3_22_40: x[2,2,2,3] + x[2,4,0,4] <= 1
 move_2_3_22_41: x[2,2,2,3] + x[2,4,1,4] <= 1
 move_2_3_22_43: x[2,2,2,3] + x[2,4,3,4] <= 1
 move_2_3_22_44: x[2,2,2,3] + x[2,4,4,4] <= 1
 move_2_3_23_00: x[2,0,0,4] + x[2,2,3,3] <= 1
 move_2_3_23_01: x[2,0,1,4] + x[2,2,3,3] <= 1
 move_2_3_23_02: x[2,0,2,4] + x[2,2,3,3] <= 1
 move_2_3_23_04: x[2,0,4,4] + x[2,2,3,3] <= 1
 move_2_3_23_10: x[2,1,0,4] + x[2,2,3,3] <= 1
 move_2_3_23_11: x[2,1,1,4] + x[2,2,3,3] <= 1
 move_2_3_23_20: x[2,2,0,4] + x[2,2,3,3] <= 1
 move_2_3_23_30: x[2,2,3,3] + x[2,3,0,4] <= 1
 move_2_3_23_31: x[2,2,3,3] + x[2,3,1,4] <= 1
 move_2_3_23_40: x[2,2,3,3] + x[2,4,0,4] <= 1
 move_2_3_23_41: x[2,2,3,3] + x[2,4,1,4] <= 1
 move_2_3_23_42: x[2,2,3,3] + x[2,4,2,4] <= 1
 move_2_3_23_44: x[2,2,3,3] + x[2,4,4,4] <= 1
 move_2_3_24_00: x[2,0,0,4] + x[2,2,4,3] <= 1
 move_2_3_24_01: x[2,0,1,4] + x[2,2,4,3] <= 1
 move_2_3_24_02: x[2,0,2,4] + x[2,2,4,3] <= 1
 move_2_3_24_03: x[2,0,3,4] + x[2,2,4,3] <= 1
 move_2_3_24_10: x[2,1,0,4] + x[2,2,4,3] <= 1
 move_2_3_24_11: x[2,1,1,4] + x[2,2,4,3] <= 1
 move_2_3_24_12: x[2,1,2,4] + x[2,2,4,3] <= 1
 move_2_3_24_20: x[2,2,0,4] + x[2,2,4,3] <= 1
 move_2_3_24_21: x[2,2,1,4] + x[2,2,4,3] <= 1
 move_2_3_24_30: x[2,2,4,3] + x[2,3,0,4] <= 1
 move_2_3_24_31: x[2,2,4,3] + x[2,3,1,4] <= 1
 move_2_3_24_32: x[2,2,4,3] + x[2,3,2,4] <= 1
 move_2_3_24_40: x[2,2,4,3] + x[2,4,0,4] <= 1
 move_2_3_24_41: x[2,2,4,3] + x[2,4,1,4] <= 1
 move_2_3_24_42: x[2,2,4,3] + x[2,4,2,4] <= 1
 move_2_3_24_43: x[2,2,4,3] + x[2,4,3,4] <= 1
 move_2_3_30_00: x[2,0,0,4] + x[2,3,0,3] <= 1
 move_2_3_30_01: x[2,0,1,4] + x[2,3,0,3] <= 1
 move_2_3_30_02: x[2,0,2,4] + x[2,3,0,3] <= 1
 move_2_3_30_03: x[2,0,3,4] + x[2,3,0,3] <= 1
 move_2_3_30_04: x[2,0,4,4] + x[2,3,0,3] <= 1
 move_2_3_30_11: x[2,1,1,4] + x[2,3,0,3] <= 1
 move_2_3_30_12: x[2,1,2,4] + x[2,3,0,3] <= 1
 move_2_3_30_13: x[2,1,3,4] + x[2,3,0,3] <= 1
 move_2_3_30_14: x[2,1,4,4] + x[2,3,0,3] <= 1
 move_2_3_30_22: x[2,2,2,4] + x[2,3,0,3] <= 1
 move_2_3_30_23: x[2,2,3,4] + x[2,3,0,3] <= 1
 move_2_3_30_24: x[2,2,4,4] + x[2,3,0,3] <= 1
 move_2_3_30_33: x[2,3,0,3] + x[2,3,3,4] <= 1
 move_2_3_30_34: x[2,3,0,3] + x[2,3,4,4] <= 1
 move_2_3_30_42: x[2,3,0,3] + x[2,4,2,4] <= 1
 move_2_3_30_43: x[2,3,0,3] + x[2,4,3,4] <= 1
 move_2_3_30_44: x[2,3,0,3] + x[2,4,4,4] <= 1
 move_2_3_31_00: x[2,0,0,4] + x[2,3,1,3] <= 1
 move_2_3_31_01: x[2,0,1,4] + x[2,3,1,3] <= 1
 move_2_3_31_02: x[2,0,2,4] + x[2,3,1,3] <= 1
 move_2_3_31_03: x[2,0,3,4] + x[2,3,1,3] <= 1
 move_2_3_31_04: x[2,0,4,4] + x[2,3,1,3] <= 1
 move_2_3_31_10: x[2,1,0,4] + x[2,3,1,3] <= 1
 move_2_3_31_12: x[2,1,2,4] + x[2,3,1,3] <= 1
 move_2_3_31_13: x[2,1,3,4] + x[2,3,1,3] <= 1
 move_2_3_31_14: x[2,1,4,4] + x[2,3,1,3] <= 1
 move_2_3_31_23: x[2,2,3,4] + x[2,3,1,3] <= 1
 move_2_3_31_24: x[2,2,4,4] + x[2,3,1,3] <= 1
 move_2_3_31_34: x[2,3,1,3] + x[2,3,4,4] <= 1
 move_2_3_31_43: x[2,3,1,3] + x[2,4,3,4] <= 1
 move_2_3_31_44: x[2,3,1,3] + x[2,4,4,4] <= 1
 move_2_3_32_00: x[2,0,0,4] + x[2,3,2,3] <= 1
 move_2_3_32_01: x[2,0,1,4] + x[2,3,2,3] <= 1
 move_2_3_32_02: x[2,0,2,4] + x[2,3,2,3] <= 1
 move_2_3_32_03: x[2,0,3,4] + x[2,3,2,3] <= 1
 move_2_3_32_04: x[2,0,4,4] + x[2,3,2,3] <= 1
 move_2_3_32_10: x[2,1,0,4] + x[2,3,2,3] <= 1
 move_2_3_32_11: x[2,1,1,4] + x[2,3,2,3] <= 1
 move_2_3_32_13: x[2,1,3,4] + x[2,3,2,3] <= 1
 move_2_3_32_14: x[2,1,4,4] + x[2,3,2,3] <= 1
 move_2_3_32_20: x[2,2,0,4] + x[2,3,2,3] <= 1
 move_2_3_32_24: x[2,2,4,4] + x[2,3,2,3] <= 1
 move_2_3_32_40: x[2,3,2,3] + x[2,4,0,4] <= 1
 move_2_3_32_44: x[2,3,2,3] + x[2,4,4,4] <= 1
 move_2_3_33_00: x[2,0,0,4] + x[2,3,3,3] <= 1
 move_2_3_33_01: x[2,0,1,4] + x[2,3,3,3] <= 1
 move_2_3_33_02: x[2,0,2,4] + x[2,3,3,3] <= 1
 move_2_3_33_03: x[2,0,3,4] + x[2,3,3,3] <= 1
 move_2_3_33_04: x[2,0,4,4] + x[2,3,3,3] <= 1
 move_2_3_33_10: x[2,1,0,4] + x[2,3,3,3] <= 1
 move_2_3_33_11: x[2,1,1,4] + x[2,3,3,3] <= 1
 move_2_3_33_12: x[2,1,2,4] + x[2,3,3,3] <= 1
 move_2_3_33_14: x[2,1,4,4] + x[2,3,3,3] <= 1
 move_2_3_33_20: x[2,2,0,4] + x[2,3,3,3] <= 1
 move_2_3_33_21: x[2,2,1,4] + x[2,3,3,3] <= 1
 move_2_3_33_30: x[2,3,0,4] + x[2,3,3,3] <= 1
 move_2_3_33_40: x[2,3,3,3] + x[2,4,0,4] <= 1
 move_2_3_33_41: x[2,3,3,3] + x[2,4,1,4] <= 1
 move_2_3_34_00: x[2,0,0,4] + x[2,3,4,3] <= 1
 move_2_3_34_01: x[2,0,1,4] + x[2,3,4,3] <= 1
 move_2_3_34_02: x[2,0,2,4] + x[2,3,4,3] <= 1
 move_2_3_34_03: x[2,0,3,4] + x[2,3,4,3] <= 1
 move_2_3_34_04: x[2,0,4,4] + x[2,3,4,3] <= 1
 move_2_3_34_10: x[2,1,0,4] + x[2,3,4,3] <= 1
 move_2_3_34_11: x[2,1,1,4] + x[2,3,4,3] <= 1
 move_2_3_34_12: x[2,1,2,4] + x[2,3,4,3] <= 1
 move_2_3_34_13: x[2,1,3,4] + x[2,3,4,3] <= 1
 move_2_3_34_20: x[2,2,0,4] + x[2,3,4,3] <= 1
 move_2_3_34_21: x[2,2,1,4] + x[2,3,4,3] <= 1
 move_2_3_34_22: x[2,2,2,4] + x[2,3,4,3] <= 1
 move_2_3_34_30: x[2,3,0,4] + x[2,3,4,3] <= 1
 move_2_3_34_31: x[2,3,1,4] + x[2,3,4,3] <= 1
 move_2_3_34_40: x[2,3,4,3] + x[2,4,0,4] <= 1
 move_2_3_34_41: x[2,3,4,3] + x[2,4,1,4] <= 1
 move_2_3_34_42: x[2,3,4,3] + x[2,4,2,4] <= 1
 move_2_3_40_00: x[2,0,0,4] + x[2,4,0,3] <= 1
 move_2_3_40_01: x[2,0,1,4] + x[2,4,0,3] <= 1
 move_2_3_40_02: x[2,0,2,4] + x[2,4,0,3] <= 1
 move_2_3_40_03: x[2,0,3,4] + x[2,4,0,3] <= 1
 move_2_3_40_04: x[2,0,4,4] + x[2,4,0,3] <= 1
 move_2_3_40_10: x[2,1,0,4] + x[2,4,0,3] <= 1
 move_2_3_40_11: x[2,1,1,4] + x[2,4,0,3] <= 1
 move_2_3_40_12: x[2,1,2,4] + x[2,4,0,3] <= 1
 move_2_3_40_13: x[2,1,3,4] + x[2,4,0,3] <= 1
 move_2_3_40_14: x[2,1,4,4] + x[2,4,0,3] <= 1
 move_2_3_40_21: x[2,2,1,4] + x[2,4,0,3] <= 1
 move_2_3_40_22: x[2,2,2,4] + x[2,4,0,3] <= 1
 move_2_3_40_23: x[2,2,3,4] + x[2,4,0,3] <= 1
 move_2_3_40_24: x[2,2,4,4] + x[2,4,0,3] <= 1
 move_2_3_40_32: x[2,3,2,4] + x[2,4,0,3] <= 1
 move_2_3_40_33: x[2,3,3,4] + x[2,4,0,3] <= 1
 move_2_3_40_34: x[2,3,4,4] + x[2,4,0,3] <= 1
 move_2_3_40_43: x[2,4,0,3] + x[2,4,3,4] <= 1
 move_2_3_40_44: x[2,4,0,3] + x[2,4,4,4] <= 1
 move_2_3_41_00: x[2,0,0,4] + x[2,4,1,3] <= 1
 move_2_3_41_01: x[2,0,1,4] + x[2,4,1,3] <= 1
 move_2_3_41_02: x[2,0,2,4] + x[2,4,1,3] <= 1
 move_2_3_41_03: x[2,0,3,4] + x[2,4,1,3] <= 1
 move_2_3_41_04: x[2,0,4,4] + x[2,4,1,3] <= 1
 move_2_3_41_10: x[2,1,0,4] + x[2,4,1,3] <= 1
 move_2_3_41_11: x[2,1,1,4] + x[2,4,1,3] <= 1
 move_2_3_41_12: x[2,1,2,4] + x[2,4,1,3] <= 1
 move_2_3_41_13: x[2,1,3,4] + x[2,4,1,3] <= 1
 move_2_3_41_14: x[2,1,4,4] + x[2,4,1,3] <= 1
 move_2_3_41_20: x[2,2,0,4] + x[2,4,1,3] <= 1
 move_2_3_41_22: x[2,2,2,4] + x[2,4,1,3] <= 1
 move_2_3_41_23: x[2,2,3,4] + x[2,4,1,3] <= 1
 move_2_3_41_24: x[2,2,4,4] + x[2,4,1,3] <= 1
 move_2_3_41_33: x[2,3,3,4] + x[2,4,1,3] <= 1
 move_2_3_41_34: x[2,3,4,4] + x[2,4,1,3] <= 1
 move_2_3_41_44: x[2,4,1,3] + x[2,4,4,4] <= 1
 move_2_3_42_00: x[2,0,0,4] + x[2,4,2,3] <= 1
 move_2_3_42_01: x[2,0,1,4] + x[2,4,2,3] <= 1
 move_2_3_42_02: x[2,0,2,4] + x[2,4,2,3] <= 1
 move_2_3_42_03: x[2,0,3,4] + x[2,4,2,3] <= 1
 move_2_3_42_04: x[2,0,4,4] + x[2,4,2,3] <= 1
 move_2_3_42_10: x[2,1,0,4] + x[2,4,2,3] <= 1
 move_2_3_42_11: x[2,1,1,4] + x[2,4,2,3] <= 1
 move_2_3_42_12: x[2,1,2,4] + x[2,4,2,3] <= 1
 move_2_3_42_13: x[2,1,3,4] + x[2,4,2,3] <= 1
 move_2_3_42_14: x[2,1,4,4] + x[2,4,2,3] <= 1
 move_2_3_42_20: x[2,2,0,4] + x[2,4,2,3] <= 1
 move_2_3_42_21: x[2,2,1,4] + x[2,4,2,3] <= 1
 move_2_3_42_23: x[2,2,3,4] + x[2,4,2,3] <= 1
 move_2_3_42_24: x[2,2,4,4] + x[2,4,2,3] <= 1
 move_2_3_42_30: x[2,3,0,4] + x[2,4,2,3] <= 1
 move_2_3_42_34: x[2,3,4,4] + x[2,4,2,3] <= 1
 move_2_3_43_00: x[2,0,0,4] + x[2,4,3,3] <= 1
 move_2_3_43_01: x[2,0,1,4] + x[2,4,3,3] <= 1
 move_2_3_43_02: x[2,0,2,4] + x[2,4,3,3] <= 1
 move_2_3_43_03: x[2,0,3,4] + x[2,4,3,3] <= 1
 move_2_3_43_04: x[2,0,4,4] + x[2,4,3,3] <= 1
 move_2_3_43_10: x[2,1,0,4] + x[2,4,3,3] <= 1
 move_2_3_43_11: x[2,1,1,4] + x[2,4,3,3] <= 1
 move_2_3_43_12: x[2,1,2,4] + x[2,4,3,3] <= 1
 move_2_3_43_13: x[2,1,3,4] + x[2,4,3,3] <= 1
 move_2_3_43_14: x[2,1,4,4] + x[2,4,3,3] <= 1
 move_2_3_43_20: x[2,2,0,4] + x[2,4,3,3] <= 1
 move_2_3_43_21: x[2,2,1,4] + x[2,4,3,3] <= 1
 move_2_3_43_22: x[2,2,2,4] + x[2,4,3,3] <= 1
 move_2_3_43_24: x[2,2,4,4] + x[2,4,3,3] <= 1
 move_2_3_43_30: x[2,3,0,4] + x[2,4,3,3] <= 1
 move_2_3_43_31: x[2,3,1,4] + x[2,4,3,3] <= 1
 move_2_3_43_40: x[2,4,0,4] + x[2,4,3,3] <= 1
 move_2_3_44_00: x[2,0,0,4] + x[2,4,4,3] <= 1
 move_2_3_44_01: x[2,0,1,4] + x[2,4,4,3] <= 1
 move_2_3_44_02: x[2,0,2,4] + x[2,4,4,3] <= 1
 move_2_3_44_03: x[2,0,3,4] + x[2,4,4,3] <= 1
 move_2_3_44_04: x[2,0,4,4] + x[2,4,4,3] <= 1
 move_2_3_44_10: x[2,1,0,4] + x[2,4,4,3] <= 1
 move_2_3_44_11: x[2,1,1,4] + x[2,4,4,3] <= 1
 move_2_3_44_12: x[2,1,2,4] + x[2,4,4,3] <= 1
 move_2_3_44_13: x[2,1,3,4] + x[2,4,4,3] <= 1
 move_2_3_44_14: x[2,1,4,4] + x[2,4,4,3] <= 1
 move_2_3_44_20: x[2,2,0,4] + x[2,4,4,3] <= 1
 move_2_3_44_21: x[2,2,1,4] + x[2,4,4,3] <= 1
 move_2_3_44_22: x[2,2,2,4] + x[2,4,4,3] <= 1
 move_2_3_44_23: x[2,2,3,4] + x[2,4,4,3] <= 1
 move_2_3_44_30: x[2,3,0,4] + x[2,4,4,3] <= 1
 move_2_3_44_31: x[2,3,1,4] + x[2,4,4,3] <= 1
 move_2_3_44_32: x[2,3,2,4] + x[2,4,4,3] <= 1
 move_2_3_44_40: x[2,4,0,4] + x[2,4,4,3] <= 1
 move_2_3_44_41: x[2,4,1,4] + x[2,4,4,3] <= 1
 move_2_4_00_03: x[2,0,0,4] + x[2,0,3,5] <= 1
 move_2_4_00_04: x[2,0,0,4] + x[2,0,4,5] <= 1
 move_2_4_00_12: x[2,0,0,4] + x[2,1,2,5] <= 1
 move_2_4_00_13: x[2,0,0,4] + x[2,1,3,5] <= 1
 move_2_4_00_14: x[2,0,0,4] + x[2,1,4,5] <= 1
 move_2_4_00_21: x[2,0,0,4] + x[2,2,1,5] <= 1
 move_2_4_00_22: x[2,0,0,4] + x[2,2,2,5] <= 1
 move_2_4_00_23: x[2,0,0,4] + x[2,2,3,5] <= 1
 move_2_4_00_24: x[2,0,0,4] + x[2,2,4,5] <= 1
 move_2_4_00_30: x[2,0,0,4] + x[2,3,0,5] <= 1
 move_2_4_00_31: x[2,0,0,4] + x[2,3,1,5] <= 1
 move_2_4_00_32: x[2,0,0,4] + x[2,3,2,5] <= 1
 move_2_4_00_33: x[2,0,0,4] + x[2,3,3,5] <= 1
 move_2_4_00_34: x[2,0,0,4] + x[2,3,4,5] <= 1
 move_2_4_00_40: x[2,0,0,4] + x[2,4,0,5] <= 1
 move_2_4_00_41: x[2,0,0,4] + x[2,4,1,5] <= 1
 move_2_4_00_42: x[2,0,0,4] + x[2,4,2,5] <= 1
 move_2_4_00_43: x[2,0,0,4] + x[2,4,3,5] <= 1
 move_2_4_00_44: x[2,0,0,4] + x[2,4,4,5] <= 1
 move_2_4_01_04: x[2,0,1,4] + x[2,0,4,5] <= 1
 move_2_4_01_13: x[2,0,1,4] + x[2,1,3,5] <= 1
 move_2_4_01_14: x[2,0,1,4] + x[2,1,4,5] <= 1
 move_2_4_01_20: x[2,0,1,4] + x[2,2,0,5] <= 1
 move_2_4_01_22: x[2,0,1,4] + x[2,2,2,5] <= 1
 move_2_4_01_23: x[2,0,1,4] + x[2,2,3,5] <= 1
 move_2_4_01_24: x[2,0,1,4] + x[2,2,4,5] <= 1
 move_2_4_01_30: x[2,0,1,4] + x[2,3,0,5] <= 1
 move_2_4_01_31: x[2,0,1,4] + x[2,3,1,5] <= 1
 move_2_4_01_32: x[2,0,1,4] + x[2,3,2,5] <= 1
 move_2_4_01_33: x[2,0,1,4] + x[2,3,3,5] <= 1
 move_2_4_01_34: x[2,0,1,4] + x[2,3,4,5] <= 1
 move_2_4_01_40: x[2,0,1,4] + x[2,4,0,5] <= 1
 move_2_4_01_41: x[2,0,1,4] + x[2,4,1,5] <= 1
 move_2_4_01_42: x[2,0,1,4] + x[2,4,2,5] <= 1
 move_2_4_01_43: x[2,0,1,4] + x[2,4,3,5] <= 1
 move_2_4_01_44: x[2,0,1,4] + x[2,4,4,5] <= 1
 move_2_4_02_10: x[2,0,2,4] + x[2,1,0,5] <= 1
 move_2_4_02_14: x[2,0,2,4] + x[2,1,4,5] <= 1
 move_2_4_02_20: x[2,0,2,4] + x[2,2,0,5] <= 1
 move_2_4_02_21: x[2,0,2,4] + x[2,2,1,5] <= 1
 move_2_4_02_23: x[2,0,2,4] + x[2,2,3,5] <= 1
 move_2_4_02_24: x[2,0,2,4] + x[2,2,4,5] <= 1
 move_2_4_02_30: x[2,0,2,4] + x[2,3,0,5] <= 1
 move_2_4_02_31: x[2,0,2,4] + x[2,3,1,5] <= 1
 move_2_4_02_32: x[2,0,2,4] + x[2,3,2,5] <= 1
 move_2_4_02_33: x[2,0,2,4] + x[2,3,3,5] <= 1
 move_2_4_02_34: x[2,0,2,4] + x[2,3,4,5] <= 1
 move_2_4_02_40: x[2,0,2,4] + x[2,4,0,5] <= 1
 move_2_4_02_41: x[2,0,2,4] + x[2,4,1,5] <= 1
 move_2_4_02_42: x[2,0,2,4] + x[2,4,2,5] <= 1
 move_2_4_02_43: x[2,0,2,4] + x[2,4,3,5] <= 1
 move_2_4_02_44: x[2,0,2,4] + x[2,4,4,5] <= 1
 move_2_4_03_00: x[2,0,0,5] + x[2,0,3,4] <= 1
 move_2_4_03_10: x[2,0,3,4] + x[2,1,0,5] <= 1
 move_2_4_03_11: x[2,0,3,4] + x[2,1,1,5] <= 1
 move_2_4_03_20: x[2,0,3,4] + x[2,2,0,5] <= 1
 move_2_4_03_21: x[2,0,3,4] + x[2,2,1,5] <= 1
 move_2_4_03_22: x[2,0,3,4] + x[2,2,2,5] <= 1
 move_2_4_03_24: x[2,0,3,4] + x[2,2,4,5] <= 1
 move_2_4_03_30: x[2,0,3,4] + x[2,3,0,5] <= 1
 move_2_4_03_31: x[2,0,3,4] + x[2,3,1,5] <= 1
 move_2_4_03_32: x[2,0,3,4] + x[2,3,2,5] <= 1
 move_2_4_03_33: x[2,0,3,4] + x[2,3,3,5] <= 1
 move_2_4_03_34: x[2,0,3,4] + x[2,3,4,5] <= 1
 move_2_4_03_40: x[2,0,3,4] + x[2,4,0,5] <= 1
 move_2_4_03_41: x[2,0,3,4] + x[2,4,1,5] <= 1
 move_2_4_03_42: x[2,0,3,4] + x[2,4,2,5] <= 1
 move_2_4_03_43: x[2,0,3,4] + x[2,4,3,5] <= 1
 move_2_4_03_44: x[2,0,3,4] + x[2,4,4,5] <= 1
 move_2_4_04_00: x[2,0,0,5] + x[2,0,4,4] <= 1
 move_2_4_04_01: x[2,0,1,5] + x[2,0,4,4] <= 1
 move_2_4_04_10: x[2,0,4,4] + x[2,1,0,5] <= 1
 move_2_4_04_11: x[2,0,4,4] + x[2,1,1,5] <= 1
 move_2_4_04_12: x[2,0,4,4] + x[2,1,2,5] <= 1
 move_2_4_04_20: x[2,0,4,4] + x[2,2,0,5] <= 1
 move_2_4_04_21: x[2,0,4,4] + x[2,2,1,5] <= 1
 move_2_4_04_22: x[2,0,4,4] + x[2,2,2,5] <= 1
 move_2_4_04_23: x[2,0,4,4] + x[2,2,3,5] <= 1
 move_2_4_04_30: x[2,0,4,4] + x[2,3,0,5] <= 1
 move_2_4_04_31: x[2,0,4,4] + x[2,3,1,5] <= 1
 move_2_4_04_32: x[2,0,4,4] + x[2,3,2,5] <= 1
 move_2_4_04_33: x[2,0,4,4] + x[2,3,3,5] <= 1
 move_2_4_04_34: x[2,0,4,4] + x[2,3,4,5] <= 1
 move_2_4_04_40: x[2,0,4,4] + x[2,4,0,5] <= 1
 move_2_4_04_41: x[2,0,4,4] + x[2,4,1,5] <= 1
 move_2_4_04_42: x[2,0,4,4] + x[2,4,2,5] <= 1
 move_2_4_04_43: x[2,0,4,4] + x[2,4,3,5] <= 1
 move_2_4_04_44: x[2,0,4,4] + x[2,4,4,5] <= 1
 move_2_4_10_02: x[2,0,2,5] + x[2,1,0,4] <= 1
 move_2_4_10_03: x[2,0,3,5] + x[2,1,0,4] <= 1
 move_2_4_10_04: x[2,0,4,5] + x[2,1,0,4] <= 1
 move_2_4_10_13: x[2,1,0,4] + x[2,1,3,5] <= 1
 move_2_4_10_14: x[2,1,0,4] + x[2,1,4,5] <= 1
 move_2_4_10_22: x[2,1,0,4] + x[2,2,2,5] <= 1
 move_2_4_10_23: x[2,1,0,4] + x[2,2,3,5] <= 1
 move_2_4_10_24: x[2,1,0,4] + x[2,2,4,5] <= 1
 move_2_4_10_31: x[2,1,0,4] + x[2,3,1,5] <= 1
 move_2_4_10_32: x[2,1,0,4] + x[2,3,2,5] <= 1
 move_2_4_10_33: x[2,1,0,4] + x[2,3,3,5] <= 1
 move_2_4_10_34: x[2,1,0,4] + x[2,3,4,5] <= 1
 move_2_4_10_40: x[2,1,0,4] + x[2,4,0,5] <= 1
 move_2_4_10_41: x[2,1,0,4] + x[2,4,1,5] <= 1
 move_2_4_10_42: x[2,1,0,4] + x[2,4,2,5] <= 1
 move_2_4_10_43: x[2,1,0,4] + x[2,4,3,5] <= 1
 move_2_4_10_44: x[2,1,0,4] + x[2,4,4,5] <= 1
 move_2_4_11_03: x[2,0,3,5] + x[2,1,1,4] <= 1
 move_2_4_11_04: x[2,0,4,5] + x[2,1,1,4] <= 1
 move_2_4_11_14: x[2,1,1,4] + x[2,1,4,5] <= 1
 move_2_4_11_23: x[2,1,1,4] + x[2,2,3,5] <= 1
 move_2_4_11_24: x[2,1,1,4] + x[2,2,4,5] <= 1
 move_2_4_11_30: x[2,1,1,4] + x[2,3,0,5] <= 1
 move_2_4_11_32: x[2,1,1,4] + x[2,3,2,5] <= 1
 move_2_4_11_33: x[2,1,1,4] + x[2,3,3,5] <= 1
 move_2_4_11_34: x[2,1,1,4] + x[2,3,4,5] <= 1
 move_2_4_11_40: x[2,1,1,4] + x[2,4,0,5] <= 1
 move_2_4_11_41: x[2,1,1,4] + x[2,4,1,5] <= 1
 move_2_4_11_42: x[2,1,1,4] + x[2,4,2,5] <= 1
 move_2_4_11_43: x[2,1,1,4] + x[2,4,3,5] <= 1
 move_2_4_11_44: x[2,1,1,4] + x[2,4,4,5] <= 1
 move_2_4_12_00: x[2,0,0,5] + x[2,1,2,4] <= 1
 move_2_4_12_04: x[2,0,4,5] + x[2,1,2,4] <= 1
 move_2_4_12_20: x[2,1,2,4] + x[2,2,0,5] <= 1
 move_2_4_12_24: x[2,1,2,4] + x[2,2,4,5] <= 1
 move_2_4_12_30: x[2,1,2,4] + x[2,3,0,5] <= 1
 move_2_4_12_31: x[2,1,2,4] + x[2,3,1,5] <= 1
 move_2_4_12_33: x[2,1,2,4] + x[2,3,3,5] <= 1
 move_2_4_12_34: x[2,1,2,4] + x[2,3,4,5] <= 1
 move_2_4_12_40: x[2,1,2,4] + x[2,4,0,5] <= 1
 move_2_4_12_41: x[2,1,2,4] + x[2,4,1,5] <= 1
 move_2_4_12_42: x[2,1,2,4] + x[2,4,2,5] <= 1
 move_2_4_12_43: x[2,1,2,4] + x[2,4,3,5] <= 1
 move_2_4_12_44: x[2,1,2,4] + x[2,4,4,5] <= 1
 move_2_4_13_00: x[2,0,0,5] + x[2,1,3,4] <= 1
 move_2_4_13_01: x[2,0,1,5] + x[2,1,3,4] <= 1
 move_2_4_13_10: x[2,1,0,5] + x[2,1,3,4] <= 1
 move_2_4_13_20: x[2,1,3,4] + x[2,2,0,5] <= 1
 move_2_4_13_21: x[2,1,3,4] + x[2,2,1,5] <= 1
 move_2_4_13_30: x[2,1,3,4] + x[2,3,0,5] <= 1
 move_2_4_13_31: x[2,1,3,4] + x[2,3,1,5] <= 1
 move_2_4_13_32: x[2,1,3,4] + x[2,3,2,5] <= 1
 move_2_4_13_34: x[2,1,3,4] + x[2,3,4,5] <= 1
 move_2_4_13_40: x[2,1,3,4] + x[2,4,0,5] <= 1
 move_2_4_13_41: x[2,1,3,4] + x[2,4,1,5] <= 1
 move_2_4_13_42: x[2,1,3,4] + x[2,4,2,5] <= 1
 move_2_4_13_43: x[2,1,3,4] + x[2,4,3,5] <= 1
 move_2_4_13_44: x[2,1,3,4] + x[2,4,4,5] <= 1
 move_2_4_14_00: x[2,0,0,5] + x[2,1,4,4] <= 1
 move_2_4_14_01: x[2,0,1,5] + x[2,1,4,4] <= 1
 move_2_4_14_02: x[2,0,2,5] + x[2,1,4,4] <= 1
 move_2_4_14_10: x[2,1,0,5] + x[2,1,4,4] <= 1
 move_2_4_14_11: x[2,1,1,5] + x[2,1,4,4] <= 1
 move_2_4_14_20: x[2,1,4,4] + x[2,2,0,5] <= 1
 move_2_4_14_21: x[2,1,4,4] + x[2,2,1,5] <= 1
 move_2_4_14_22: x[2,1,4,4] + x[2,2,2,5] <= 1
 move_2_4_14_30: x[2,1,4,4] + x[2,3,0,5] <= 1
 move_2_4_14_31: x[2,1,4,4] + x[2,3,1,5] <= 1
 move_2_4_14_32: x[2,1,4,4] + x[2,3,2,5] <= 1
 move_2_4_14_33: x[2,1,4,4] + x[2,3,3,5] <= 1
 move_2_4_14_40: x[2,1,4,4] + x[2,4,0,5] <= 1
 move_2_4_14_41: x[2,1,4,4] + x[2,4,1,5] <= 1
 move_2_4_14_42: x[2,1,4,4] + x[2,4,2,5] <= 1
 move_2_4_14_43: x[2,1,4,4] + x[2,4,3,5] <= 1
 move_2_4_14_44: x[2,1,4,4] + x[2,4,4,5] <= 1
 move_2_4_20_01: x[2,0,1,5] + x[2,2,0,4] <= 1
 move_2_4_20_02: x[2,0,2,5] + x[2,2,0,4] <= 1
 move_2_4_20_03: x[2,0,3,5] + x[2,2,0,4] <= 1
 move_2_4_20_04: x[2,0,4,5] + x[2,2,0,4] <= 1
 move_2_4_20_12: x[2,1,2,5] + x[2,2,0,4] <= 1
 move_2_4_20_13: x[2,1,3,5] + x[2,2,0,4] <= 1
 move_2_4_20_14: x[2,1,4,5] + x[2,2,0,4] <= 1
 move_2_4_20_23: x[2,2,0,4] + x[2,2,3,5] <= 1
 move_2_4_20_24: x[2,2,0,4] + x[2,2,4,5] <= 1
 move_2_4_20_32: x[2,2,0,4] + x[2,3,2,5] <= 1
 move_2_4_20_33: x[2,2,0,4] + x[2,3,3,5] <= 1
 move_2_4_20_34: x[2,2,0,4] + x[2,3,4,5] <= 1
 move_2_4_20_41: x[2,2,0,4] + x[2,4,1,5] <= 1
 move_2_4_20_42: x[2,2,0,4] + x[2,4,2,5] <= 1
 move_2_4_20_43: x[2,2,0,4] + x[2,4,3,5] <= 1
 move_2_4_20_44: x[2,2,0,4] + x[2,4,4,5] <= 1
 move_2_4_21_00: x[2,0,0,5] + x[2,2,1,4] <= 1
 move_2_4_21_02: x[2,0,2,5] + x[2,2,1,4] <= 1
 move_2_4_21_03: x[2,0,3,5] + x[2,2,1,4] <= 1
 move_2_4_21_04: x[2,0,4,5] + x[2,2,1,4] <= 1
 move_2_4_21_13: x[2,1,3,5] + x[2,2,1,4] <= 1
 move_2_4_21_14: x[2,1,4,5] + x[2,2,1,4] <= 1
 move_2_4_21_24: x[2,2,1,4] + x[2,2,4,5] <= 1
 move_2_4_21_33: x[2,2,1,4] + x[2,3,3,5] <= 1
 move_2_4_21_34: x[2,2,1,4] + x[2,3,4,5] <= 1
 move_2_4_21_40: x[2,2,1,4] + x[2,4,0,5] <= 1
 move_2_4_21_42: x[2,2,1,4] + x[2,4,2,5] <= 1
 move_2_4_21_43: x[2,2,1,4] + x[2,4,3,5] <= 1
 move_2_4_21_44: x[2,2,1,4] + x[2,4,4,5] <= 1
 move_2_4_22_00: x[2,0,0,5] + x[2,2,2,4] <= 1
 move_2_4_22_01: x[2,0,1,5] + x[2,2,2,4] <= 1
 move_2_4_22_03: x[2,0,3,5] + x[2,2,2,4] <= 1
 move_2_4_22_04: x[2,0,4,5] + x[2,2,2,4] <= 1
 move_2_4_22_10: x[2,1,0,5] + x[2,2,2,4] <= 1
 move_2_4_22_14: x[2,1,4,5] + x[2,2,2,4] <= 1
 move_2_4_22_30: x[2,2,2,4] + x[2,3,0,5] <= 1
 move_2_4_22_34: x[2,2,2,4] + x[2,3,4,5] <= 1
 move_2_4_22_40: x[2,2,2,4] + x[2,4,0,5] <= 1
 move_2_4_22_41: x[2,2,2,4] + x[2,4,1,5] <= 1
 move_2_4_22_43: x[2,2,2,4] + x[2,4,3,5] <= 1
 move_2_4_22_44: x[2,2,2,4] + x[2,4,4,5] <= 1
 move_2_4_23_00: x[2,0,0,5] + x[2,2,3,4] <= 1
 move_2_4_23_01: x[2,0,1,5] + x[2,2,3,4] <= 1
 move_2_4_23_02: x[2,0,2,5] + x[2,2,3,4] <= 1
 move_2_4_23_04: x[2,0,4,5] + x[2,2,3,4] <= 1
 move_2_4_23_10: x[2,1,0,5] + x[2,2,3,4] <= 1
 move_2_4_23_11: x[2,1,1,5] + x[2,2,3,4] <= 1
 move_2_4_23_20: x[2,2,0,5] + x[2,2,3,4] <= 1
 move_2_4_23_30: x[2,2,3,4] + x[2,3,0,5] <= 1
 move_2_4_23_31: x[2,2,3,4] + x[2,3,1,5] <= 1
 move_2_4_23_40: x[2,2,3,4] + x[2,4,0,5] <= 1
 move_2_4_23_41: x[2,2,3,4] + x[2,4,1,5] <= 1
 move_2_4_23_42: x[2,2,3,4] + x[2,4,2,5] <= 1
 move_2_4_23_44: x[2,2,3,4] + x[2,4,4,5] <= 1
 move_2_4_24_00: x[2,0,0,5] + x[2,2,4,4] <= 1
 move_2_4_24_01: x[2,0,1,5] + x[2,2,4,4] <= 1
 move_2_4_24_02: x[2,0,2,5] + x[2,2,4,4] <= 1
 move_2_4_24_03: x[2,0,3,5] + x[2,2,4,4] <= 1
 move_2_4_24_10: x[2,1,0,5] + x[2,2,4,4] <= 1
 move_2_4_24_11: x[2,1,1,5] + x[2,2,4,4] <= 1
 move_2_4_24_12: x[2,1,2,5] + x[2,2,4,4] <= 1
 move_2_4_24_20: x[2,2,0,5] + x[2,2,4,4] <= 1
 move_2_4_24_21: x[2,2,1,5] + x[2,2,4,4] <= 1
 move_2_4_24_30: x[2,2,4,4] + x[2,3,0,5] <= 1
 move_2_4_24_31: x[2,2,4,4] + x[2,3,1,5] <= 1
 move_2_4_24_32: x[2,2,4,4] + x[2,3,2,5] <= 1
 move_2_4_24_40: x[2,2,4,4] + x[2,4,0,5] <= 1
 move_2_4_24_41: x[2,2,4,4] + x[2,4,1,5] <= 1
 move_2_4_24_42: x[2,2,4,4] + x[2,4,2,5] <= 1
 move_2_4_24_43: x[2,2,4,4] + x[2,4,3,5] <= 1
 move_2_4_30_00: x[2,0,0,5] + x[2,3,0,4] <= 1
 move_2_4_30_01: x[2,0,1,5] + x[2,3,0,4] <= 1
 move_2_4_30_02: x[2,0,2,5] + x[2,3,0,4] <= 1
 move_2_4_30_03: x[2,0,3,5] + x[2,3,0,4] <= 1
 move_2_4_30_04: x[2,0,4,5] + x[2,3,0,4] <= 1
 move_2_4_30_11: x[2,1,1,5] + x[2,3,0,4] <= 1
 move_2_4_30_12: x[2,1,2,5] + x[2,3,0,4] <= 1
 move_2_4_30_13: x[2,1,3,5] + x[2,3,0,4] <= 1
 move_2_4_30_14: x[2,1,4,5] + x[2,3,0,4] <= 1
 move_2_4_30_22: x[2,2,2,5] + x[2,3,0,4] <= 1
 move_2_4_30_23: x[2,2,3,5] + x[2,3,0,4] <= 1
 move_2_4_30_24: x[2,2,4,5] + x[2,3,0,4] <= 1
 move_2_4_30_33: x[2,3,0,4] + x[2,3,3,5] <= 1
 move_2_4_30_34: x[2,3,0,4] + x[2,3,4,5] <= 1
 move_2_4_30_42: x[2,3,0,4] + x[2,4,2,5] <= 1
 move_2_4_30_43: x[2,3,0,4] + x[2,4,3,5] <= 1
 move_2_4_30_44: x[2,3,0,4] + x[2,4,4,5] <= 1
 move_2_4_31_00: x[2,0,0,5] + x[2,3,1,4] <= 1
 move_2_4_31_01: x[2,0,1,5] + x[2,3,1,4] <= 1
 move_2_4_31_02: x[2,0,2,5] + x[2,3,1,4] <= 1
 move_2_4_31_03: x[2,0,3,5] + x[2,3,1,4] <= 1
 move_2_4_31_04: x[2,0,4,5] + x[2,3,1,4] <= 1
 move_2_4_31_10: x[2,1,0,5] + x[2,3,1,4] <= 1
 move_2_4_31_12: x[2,1,2,5] + x[2,3,1,4] <= 1
 move_2_4_31_13: x[2,1,3,5] + x[2,3,1,4] <= 1
 move_2_4_31_14: x[2,1,4,5] + x[2,3,1,4] <= 1
 move_2_4_31_23: x[2,2,3,5] + x[2,3,1,4] <= 1
 move_2_4_31_24: x[2,2,4,5] + x[2,3,1,4] <= 1
 move_2_4_31_34: x[2,3,1,4] + x[2,3,4,5] <= 1
 move_2_4_31_43: x[2,3,1,4] + x[2,4,3,5] <= 1
 move_2_4_31_44: x[2,3,1,4] + x[2,4,4,5] <= 1
 move_2_4_32_00: x[2,0,0,5] + x[2,3,2,4] <= 1
 move_2_4_32_01: x[2,0,1,5] + x[2,3,2,4] <= 1
 move_2_4_32_02: x[2,0,2,5] + x[2,3,2,4] <= 1
 move_2_4_32_03: x[2,0,3,5] + x[2,3,2,4] <= 1
 move_2_4_32_04: x[2,0,4,5] + x[2,3,2,4] <= 1
 move_2_4_32_10: x[2,1,0,5] + x[2,3,2,4] <= 1
 move_2_4_32_11: x[2,1,1,5] + x[2,3,2,4] <= 1
 move_2_4_32_13: x[2,1,3,5] + x[2,3,2,4] <= 1
 move_2_4_32_14: x[2,1,4,5] + x[2,3,2,4] <= 1
 move_2_4_32_20: x[2,2,0,5] + x[2,3,2,4] <= 1
 move_2_4_32_24: x[2,2,4,5] + x[2,3,2,4] <= 1
 move_2_4_32_40: x[2,3,2,4] + x[2,4,0,5] <= 1
 move_2_4_32_44: x[2,3,2,4] + x[2,4,4,5] <= 1
 move_2_4_33_00: x[2,0,0,5] + x[2,3,3,4] <= 1
 move_2_4_33_01: x[2,0,1,5] + x[2,3,3,4] <= 1
 move_2_4_33_02: x[2,0,2,5] + x[2,3,3,4] <= 1
 move_2_4_33_03: x[2,0,3,5] + x[2,3,3,4] <= 1
 move_2_4_33_04: x[2,0,4,5] + x[2,3,3,4] <= 1
 move_2_4_33_10: x[2,1,0,5] + x[2,3,3,4] <= 1
 move_2_4_33_11: x[2,1,1,5] + x[2,3,3,4] <= 1
 move_2_4_33_12: x[2,1,2,5] + x[2,3,3,4] <= 1
 move_2_4_33_14: x[2,1,4,5] + x[2,3,3,4] <= 1
 move_2_4_33_20: x[2,2,0,5] + x[2,3,3,4] <= 1
 move_2_4_33_21: x[2,2,1,5] + x[2,3,3,4] <= 1
 move_2_4_33_30: x[2,3,0,5] + x[2,3,3,4] <= 1
 move_2_4_33_40: x[2,3,3,4] + x[2,4,0,5] <= 1
 move_2_4_33_41: x[2,3,3,4] + x[2,4,1,5] <= 1
 move_2_4_34_00: x[2,0,0,5] + x[2,3,4,4] <= 1
 move_2_4_34_01: x[2,0,1,5] + x[2,3,4,4] <= 1
 move_2_4_34_02: x[2,0,2,5] + x[2,3,4,4] <= 1
 move_2_4_34_03: x[2,0,3,5] + x[2,3,4,4] <= 1
 move_2_4_34_04: x[2,0,4,5] + x[2,3,4,4] <= 1
 move_2_4_34_10: x[2,1,0,5] + x[2,3,4,4] <= 1
 move_2_4_34_11: x[2,1,1,5] + x[2,3,4,4] <= 1
 move_2_4_34_12: x[2,1,2,5] + x[2,3,4,4] <= 1
 move_2_4_34_13: x[2,1,3,5] + x[2,3,4,4] <= 1
 move_2_4_34_20: x[2,2,0,5] + x[2,3,4,4] <= 1
 move_2_4_34_21: x[2,2,1,5] + x[2,3,4,4] <= 1
 move_2_4_34_22: x[2,2,2,5] + x[2,3,4,4] <= 1
 move_2_4_34_30: x[2,3,0,5] + x[2,3,4,4] <= 1
 move_2_4_34_31: x[2,3,1,5] + x[2,3,4,4] <= 1
 move_2_4_34_40: x[2,3,4,4] + x[2,4,0,5] <= 1
 move_2_4_34_41: x[2,3,4,4] + x[2,4,1,5] <= 1
 move_2_4_34_42: x[2,3,4,4] + x[2,4,2,5] <= 1
 move_2_4_40_00: x[2,0,0,5] + x[2,4,0,4] <= 1
 move_2_4_40_01: x[2,0,1,5] + x[2,4,0,4] <= 1
 move_2_4_40_02: x[2,0,2,5] + x[2,4,0,4] <= 1
 move_2_4_40_03: x[2,0,3,5] + x[2,4,0,4] <= 1
 move_2_4_40_04: x[2,0,4,5] + x[2,4,0,4] <= 1
 move_2_4_40_10: x[2,1,0,5] + x[2,4,0,4] <= 1
 move_2_4_40_11: x[2,1,1,5] + x[2,4,0,4] <= 1
 move_2_4_40_12: x[2,1,2,5] + x[2,4,0,4] <= 1
 move_2_4_40_13: x[2,1,3,5] + x[2,4,0,4] <= 1
 move_2_4_40_14: x[2,1,4,5] + x[2,4,0,4] <= 1
 move_2_4_40_21: x[2,2,1,5] + x[2,4,0,4] <= 1
 move_2_4_40_22: x[2,2,2,5] + x[2,4,0,4] <= 1
 move_2_4_40_23: x[2,2,3,5] + x[2,4,0,4] <= 1
 move_2_4_40_24: x[2,2,4,5] + x[2,4,0,4] <= 1
 move_2_4_40_32: x[2,3,2,5] + x[2,4,0,4] <= 1
 move_2_4_40_33: x[2,3,3,5] + x[2,4,0,4] <= 1
 move_2_4_40_34: x[2,3,4,5] + x[2,4,0,4] <= 1
 move_2_4_40_43: x[2,4,0,4] + x[2,4,3,5] <= 1
 move_2_4_40_44: x[2,4,0,4] + x[2,4,4,5] <= 1
 move_2_4_41_00: x[2,0,0,5] + x[2,4,1,4] <= 1
 move_2_4_41_01: x[2,0,1,5] + x[2,4,1,4] <= 1
 move_2_4_41_02: x[2,0,2,5] + x[2,4,1,4] <= 1
 move_2_4_41_03: x[2,0,3,5] + x[2,4,1,4] <= 1
 move_2_4_41_04: x[2,0,4,5] + x[2,4,1,4] <= 1
 move_2_4_41_10: x[2,1,0,5] + x[2,4,1,4] <= 1
 move_2_4_41_11: x[2,1,1,5] + x[2,4,1,4] <= 1
 move_2_4_41_12: x[2,1,2,5] + x[2,4,1,4] <= 1
 move_2_4_41_13: x[2,1,3,5] + x[2,4,1,4] <= 1
 move_2_4_41_14: x[2,1,4,5] + x[2,4,1,4] <= 1
 move_2_4_41_20: x[2,2,0,5] + x[2,4,1,4] <= 1
 move_2_4_41_22: x[2,2,2,5] + x[2,4,1,4] <= 1
 move_2_4_41_23: x[2,2,3,5] + x[2,4,1,4] <= 1
 move_2_4_41_24: x[2,2,4,5] + x[2,4,1,4] <= 1
 move_2_4_41_33: x[2,3,3,5] + x[2,4,1,4] <= 1
 move_2_4_41_34: x[2,3,4,5] + x[2,4,1,4] <= 1
 move_2_4_41_44: x[2,4,1,4] + x[2,4,4,5] <= 1
 move_2_4_42_00: x[2,0,0,5] + x[2,4,2,4] <= 1
 move_2_4_42_01: x[2,0,1,5] + x[2,4,2,4] <= 1
 move_2_4_42_02: x[2,0,2,5] + x[2,4,2,4] <= 1
 move_2_4_42_03: x[2,0,3,5] + x[2,4,2,4] <= 1
 move_2_4_42_04: x[2,0,4,5] + x[2,4,2,4] <= 1
 move_2_4_42_10: x[2,1,0,5] + x[2,4,2,4] <= 1
 move_2_4_42_11: x[2,1,1,5] + x[2,4,2,4] <= 1
 move_2_4_42_12: x[2,1,2,5] + x[2,4,2,4] <= 1
 move_2_4_42_13: x[2,1,3,5] + x[2,4,2,4] <= 1
 move_2_4_42_14: x[2,1,4,5] + x[2,4,2,4] <= 1
 move_2_4_42_20: x[2,2,0,5] + x[2,4,2,4] <= 1
 move_2_4_42_21: x[2,2,1,5] + x[2,4,2,4] <= 1
 move_2_4_42_23: x[2,2,3,5] + x[2,4,2,4] <= 1
 move_2_4_42_24: x[2,2,4,5] + x[2,4,2,4] <= 1
 move_2_4_42_30: x[2,3,0,5] + x[2,4,2,4] <= 1
 move_2_4_42_34: x[2,3,4,5] + x[2,4,2,4] <= 1
 move_2_4_43_00: x[2,0,0,5] + x[2,4,3,4] <= 1
 move_2_4_43_01: x[2,0,1,5] + x[2,4,3,4] <= 1
 move_2_4_43_02: x[2,0,2,5] + x[2,4,3,4] <= 1
 move_2_4_43_03: x[2,0,3,5] + x[2,4,3,4] <= 1
 move_2_4_43_04: x[2,0,4,5] + x[2,4,3,4] <= 1
 move_2_4_43_10: x[2,1,0,5] + x[2,4,3,4] <= 1
 move_2_4_43_11: x[2,1,1,5] + x[2,4,3,4] <= 1
 move_2_4_43_12: x[2,1,2,5] + x[2,4,3,4] <= 1
 move_2_4_43_13: x[2,1,3,5] + x[2,4,3,4] <= 1
 move_2_4_43_14: x[2,1,4,5] + x[2,4,3,4] <= 1
 move_2_4_43_20: x[2,2,0,5] + x[2,4,3,4] <= 1
 move_2_4_43_21: x[2,2,1,5] + x[2,4,3,4] <= 1
 move_2_4_43_22: x[2,2,2,5] + x[2,4,3,4] <= 1
 move_2_4_43_24: x[2,2,4,5] + x[2,4,3,4] <= 1
 move_2_4_43_30: x[2,3,0,5] + x[2,4,3,4] <= 1
 move_2_4_43_31: x[2,3,1,5] + x[2,4,3,4] <= 1
 move_2_4_43_40: x[2,4,0,5] + x[2,4,3,4] <= 1
 move_2_4_44_00: x[2,0,0,5] + x[2,4,4,4] <= 1
 move_2_4_44_01: x[2,0,1,5] + x[2,4,4,4] <= 1
 move_2_4_44_02: x[2,0,2,5] + x[2,4,4,4] <= 1
 move_2_4_44_03: x[2,0,3,5] + x[2,4,4,4] <= 1
 move_2_4_44_04: x[2,0,4,5] + x[2,4,4,4] <= 1
 move_2_4_44_10: x[2,1,0,5] + x[2,4,4,4] <= 1
 move_2_4_44_11: x[2,1,1,5] + x[2,4,4,4] <= 1
 move_2_4_44_12: x[2,1,2,5] + x[2,4,4,4] <= 1
 move_2_4_44_13: x[2,1,3,5] + x[2,4,4,4] <= 1
 move_2_4_44_14: x[2,1,4,5] + x[2,4,4,4] <= 1
 move_2_4_44_20: x[2,2,0,5] + x[2,4,4,4] <= 1
 move_2_4_44_21: x[2,2,1,5] + x[2,4,4,4] <= 1
 move_2_4_44_22: x[2,2,2,5] + x[2,4,4,4] <= 1
 move_2_4_44_23: x[2,2,3,5] + x[2,4,4,4] <= 1
 move_2_4_44_30: x[2,3,0,5] + x[2,4,4,4] <= 1
 move_2_4_44_31: x[2,3,1,5] + x[2,4,4,4] <= 1
 move_2_4_44_32: x[2,3,2,5] + x[2,4,4,4] <= 1
 move_2_4_44_40: x[2,4,0,5] + x[2,4,4,4] <= 1
 move_2_4_44_41: x[2,4,1,5] + x[2,4,4,4] <= 1
 move_2_5_00_03: x[2,0,0,5] + x[2,0,3,6] <= 1
 move_2_5_00_04: x[2,0,0,5] + x[2,0,4,6] <= 1
 move_2_5_00_12: x[2,0,0,5] + x[2,1,2,6] <= 1
 move_2_5_00_13: x[2,0,0,5] + x[2,1,3,6] <= 1
 move_2_5_00_14: x[2,0,0,5] + x[2,1,4,6] <= 1
 move_2_5_00_21: x[2,0,0,5] + x[2,2,1,6] <= 1
 move_2_5_00_22: x[2,0,0,5] + x[2,2,2,6] <= 1
 move_2_5_00_23: x[2,0,0,5] + x[2,2,3,6] <= 1
 move_2_5_00_24: x[2,0,0,5] + x[2,2,4,6] <= 1
 move_2_5_00_30: x[2,0,0,5] + x[2,3,0,6] <= 1
 move_2_5_00_31: x[2,0,0,5] + x[2,3,1,6] <= 1
 move_2_5_00_32: x[2,0,0,5] + x[2,3,2,6] <= 1
 move_2_5_00_33: x[2,0,0,5] + x[2,3,3,6] <= 1
 move_2_5_00_34: x[2,0,0,5] + x[2,3,4,6] <= 1
 move_2_5_00_40: x[2,0,0,5] + x[2,4,0,6] <= 1
 move_2_5_00_41: x[2,0,0,5] + x[2,4,1,6] <= 1
 move_2_5_00_42: x[2,0,0,5] + x[2,4,2,6] <= 1
 move_2_5_00_43: x[2,0,0,5] + x[2,4,3,6] <= 1
 move_2_5_00_44: x[2,0,0,5] + x[2,4,4,6] <= 1
 move_2_5_01_04: x[2,0,1,5] + x[2,0,4,6] <= 1
 move_2_5_01_13: x[2,0,1,5] + x[2,1,3,6] <= 1
 move_2_5_01_14: x[2,0,1,5] + x[2,1,4,6] <= 1
 move_2_5_01_20: x[2,0,1,5] + x[2,2,0,6] <= 1
 move_2_5_01_22: x[2,0,1,5] + x[2,2,2,6] <= 1
 move_2_5_01_23: x[2,0,1,5] + x[2,2,3,6] <= 1
 move_2_5_01_24: x[2,0,1,5] + x[2,2,4,6] <= 1
 move_2_5_01_30: x[2,0,1,5] + x[2,3,0,6] <= 1
 move_2_5_01_31: x[2,0,1,5] + x[2,3,1,6] <= 1
 move_2_5_01_32: x[2,0,1,5] + x[2,3,2,6] <= 1
 move_2_5_01_33: x[2,0,1,5] + x[2,3,3,6] <= 1
 move_2_5_01_34: x[2,0,1,5] + x[2,3,4,6] <= 1
 move_2_5_01_40: x[2,0,1,5] + x[2,4,0,6] <= 1
 move_2_5_01_41: x[2,0,1,5] + x[2,4,1,6] <= 1
 move_2_5_01_42: x[2,0,1,5] + x[2,4,2,6] <= 1
 move_2_5_01_43: x[2,0,1,5] + x[2,4,3,6] <= 1
 move_2_5_01_44: x[2,0,1,5] + x[2,4,4,6] <= 1
 move_2_5_02_10: x[2,0,2,5] + x[2,1,0,6] <= 1
 move_2_5_02_14: x[2,0,2,5] + x[2,1,4,6] <= 1
 move_2_5_02_20: x[2,0,2,5] + x[2,2,0,6] <= 1
 move_2_5_02_21: x[2,0,2,5] + x[2,2,1,6] <= 1
 move_2_5_02_23: x[2,0,2,5] + x[2,2,3,6] <= 1
 move_2_5_02_24: x[2,0,2,5] + x[2,2,4,6] <= 1
 move_2_5_02_30: x[2,0,2,5] + x[2,3,0,6] <= 1
 move_2_5_02_31: x[2,0,2,5] + x[2,3,1,6] <= 1
 move_2_5_02_32: x[2,0,2,5] + x[2,3,2,6] <= 1
 move_2_5_02_33: x[2,0,2,5] + x[2,3,3,6] <= 1
 move_2_5_02_34: x[2,0,2,5] + x[2,3,4,6] <= 1
 move_2_5_02_40: x[2,0,2,5] + x[2,4,0,6] <= 1
 move_2_5_02_41: x[2,0,2,5] + x[2,4,1,6] <= 1
 move_2_5_02_42: x[2,0,2,5] + x[2,4,2,6] <= 1
 move_2_5_02_43: x[2,0,2,5] + x[2,4,3,6] <= 1
 move_2_5_02_44: x[2,0,2,5] + x[2,4,4,6] <= 1
 move_2_5_03_00: x[2,0,0,6] + x[2,0,3,5] <= 1
 move_2_5_03_10: x[2,0,3,5] + x[2,1,0,6] <= 1
 move_2_5_03_11: x[2,0,3,5] + x[2,1,1,6] <= 1
 move_2_5_03_20: x[2,0,3,5] + x[2,2,0,6] <= 1
 move_2_5_03_21: x[2,0,3,5] + x[2,2,1,6] <= 1
 move_2_5_03_22: x[2,0,3,5] + x[2,2,2,6] <= 1
 move_2_5_03_24: x[2,0,3,5] + x[2,2,4,6] <= 1
 move_2_5_03_30: x[2,0,3,5] + x[2,3,0,6] <= 1
 move_2_5_03_31: x[2,0,3,5] + x[2,3,1,6] <= 1
 move_2_5_03_32: x[2,0,3,5] + x[2,3,2,6] <= 1
 move_2_5_03_33: x[2,0,3,5] + x[2,3,3,6] <= 1
 move_2_5_03_34: x[2,0,3,5] + x[2,3,4,6] <= 1
 move_2_5_03_40: x[2,0,3,5] + x[2,4,0,6] <= 1
 move_2_5_03_41: x[2,0,3,5] + x[2,4,1,6] <= 1
 move_2_5_03_42: x[2,0,3,5] + x[2,4,2,6] <= 1
 move_2_5_03_43: x[2,0,3,5] + x[2,4,3,6] <= 1
 move_2_5_03_44: x[2,0,3,5] + x[2,4,4,6] <= 1
 move_2_5_04_00: x[2,0,0,6] + x[2,0,4,5] <= 1
 move_2_5_04_01: x[2,0,1,6] + x[2,0,4,5] <= 1
 move_2_5_04_10: x[2,0,4,5] + x[2,1,0,6] <= 1
 move_2_5_04_11: x[2,0,4,5] + x[2,1,1,6] <= 1
 move_2_5_04_12: x[2,0,4,5] + x[2,1,2,6] <= 1
 move_2_5_04_20: x[2,0,4,5] + x[2,2,0,6] <= 1
 move_2_5_04_21: x[2,0,4,5] + x[2,2,1,6] <= 1
 move_2_5_04_22: x[2,0,4,5] + x[2,2,2,6] <= 1
 move_2_5_04_23: x[2,0,4,5] + x[2,2,3,6] <= 1
 move_2_5_04_30: x[2,0,4,5] + x[2,3,0,6] <= 1
 move_2_5_04_31: x[2,0,4,5] + x[2,3,1,6] <= 1
 move_2_5_04_32: x[2,0,4,5] + x[2,3,2,6] <= 1
 move_2_5_04_33: x[2,0,4,5] + x[2,3,3,6] <= 1
 move_2_5_04_34: x[2,0,4,5] + x[2,3,4,6] <= 1
 move_2_5_04_40: x[2,0,4,5] + x[2,4,0,6] <= 1
 move_2_5_04_41: x[2,0,4,5] + x[2,4,1,6] <= 1
 move_2_5_04_42: x[2,0,4,5] + x[2,4,2,6] <= 1
 move_2_5_04_43: x[2,0,4,5] + x[2,4,3,6] <= 1
 move_2_5_04_44: x[2,0,4,5] + x[2,4,4,6] <= 1
 move_2_5_10_02: x[2,0,2,6] + x[2,1,0,5] <= 1
 move_2_5_10_03: x[2,0,3,6] + x[2,1,0,5] <= 1
 move_2_5_10_04: x[2,0,4,6] + x[2,1,0,5] <= 1
 move_2_5_10_13: x[2,1,0,5] + x[2,1,3,6] <= 1
 move_2_5_10_14: x[2,1,0,5] + x[2,1,4,6] <= 1
 move_2_5_10_22: x[2,1,0,5] + x[2,2,2,6] <= 1
 move_2_5_10_23: x[2,1,0,5] + x[2,2,3,6] <= 1
 move_2_5_10_24: x[2,1,0,5] + x[2,2,4,6] <= 1
 move_2_5_10_31: x[2,1,0,5] + x[2,3,1,6] <= 1
 move_2_5_10_32: x[2,1,0,5] + x[2,3,2,6] <= 1
 move_2_5_10_33: x[2,1,0,5] + x[2,3,3,6] <= 1
 move_2_5_10_34: x[2,1,0,5] + x[2,3,4,6] <= 1
 move_2_5_10_40: x[2,1,0,5] + x[2,4,0,6] <= 1
 move_2_5_10_41: x[2,1,0,5] + x[2,4,1,6] <= 1
 move_2_5_10_42: x[2,1,0,5] + x[2,4,2,6] <= 1
 move_2_5_10_43: x[2,1,0,5] + x[2,4,3,6] <= 1
 move_2_5_10_44: x[2,1,0,5] + x[2,4,4,6] <= 1
 move_2_5_11_03: x[2,0,3,6] + x[2,1,1,5] <= 1
 move_2_5_11_04: x[2,0,4,6] + x[2,1,1,5] <= 1
 move_2_5_11_14: x[2,1,1,5] + x[2,1,4,6] <= 1
 move_2_5_11_23: x[2,1,1,5] + x[2,2,3,6] <= 1
 move_2_5_11_24: x[2,1,1,5] + x[2,2,4,6] <= 1
 move_2_5_11_30: x[2,1,1,5] + x[2,3,0,6] <= 1
 move_2_5_11_32: x[2,1,1,5] + x[2,3,2,6] <= 1
 move_2_5_11_33: x[2,1,1,5] + x[2,3,3,6] <= 1
 move_2_5_11_34: x[2,1,1,5] + x[2,3,4,6] <= 1
 move_2_5_11_40: x[2,1,1,5] + x[2,4,0,6] <= 1
 move_2_5_11_41: x[2,1,1,5] + x[2,4,1,6] <= 1
 move_2_5_11_42: x[2,1,1,5] + x[2,4,2,6] <= 1
 move_2_5_11_43: x[2,1,1,5] + x[2,4,3,6] <= 1
 move_2_5_11_44: x[2,1,1,5] + x[2,4,4,6] <= 1
 move_2_5_12_00: x[2,0,0,6] + x[2,1,2,5] <= 1
 move_2_5_12_04: x[2,0,4,6] + x[2,1,2,5] <= 1
 move_2_5_12_20: x[2,1,2,5] + x[2,2,0,6] <= 1
 move_2_5_12_24: x[2,1,2,5] + x[2,2,4,6] <= 1
 move_2_5_12_30: x[2,1,2,5] + x[2,3,0,6] <= 1
 move_2_5_12_31: x[2,1,2,5] + x[2,3,1,6] <= 1
 move_2_5_12_33: x[2,1,2,5] + x[2,3,3,6] <= 1
 move_2_5_12_34: x[2,1,2,5] + x[2,3,4,6] <= 1
 move_2_5_12_40: x[2,1,2,5] + x[2,4,0,6] <= 1
 move_2_5_12_41: x[2,1,2,5] + x[2,4,1,6] <= 1
 move_2_5_12_42: x[2,1,2,5] + x[2,4,2,6] <= 1
 move_2_5_12_43: x[2,1,2,5] + x[2,4,3,6] <= 1
 move_2_5_12_44: x[2,1,2,5] + x[2,4,4,6] <= 1
 move_2_5_13_00: x[2,0,0,6] + x[2,1,3,5] <= 1
 move_2_5_13_01: x[2,0,1,6] + x[2,1,3,5] <= 1
 move_2_5_13_10: x[2,1,0,6] + x[2,1,3,5] <= 1
 move_2_5_13_20: x[2,1,3,5] + x[2,2,0,6] <= 1
 move_2_5_13_21: x[2,1,3,5] + x[2,2,1,6] <= 1
 move_2_5_13_30: x[2,1,3,5] + x[2,3,0,6] <= 1
 move_2_5_13_31: x[2,1,3,5] + x[2,3,1,6] <= 1
 move_2_5_13_32: x[2,1,3,5] + x[2,3,2,6] <= 1
 move_2_5_13_34: x[2,1,3,5] + x[2,3,4,6] <= 1
 move_2_5_13_40: x[2,1,3,5] + x[2,4,0,6] <= 1
 move_2_5_13_41: x[2,1,3,5] + x[2,4,1,6] <= 1
 move_2_5_13_42: x[2,1,3,5] + x[2,4,2,6] <= 1
 move_2_5_13_43: x[2,1,3,5] + x[2,4,3,6] <= 1
 move_2_5_13_44: x[2,1,3,5] + x[2,4,4,6] <= 1
 move_2_5_14_00: x[2,0,0,6] + x[2,1,4,5] <= 1
 move_2_5_14_01: x[2,0,1,6] + x[2,1,4,5] <= 1
 move_2_5_14_02: x[2,0,2,6] + x[2,1,4,5] <= 1
 move_2_5_14_10: x[2,1,0,6] + x[2,1,4,5] <= 1
 move_2_5_14_11: x[2,1,1,6] + x[2,1,4,5] <= 1
 move_2_5_14_20: x[2,1,4,5] + x[2,2,0,6] <= 1
 move_2_5_14_21: x[2,1,4,5] + x[2,2,1,6] <= 1
 move_2_5_14_22: x[2,1,4,5] + x[2,2,2,6] <= 1
 move_2_5_14_30: x[2,1,4,5] + x[2,3,0,6] <= 1
 move_2_5_14_31: x[2,1,4,5] + x[2,3,1,6] <= 1
 move_2_5_14_32: x[2,1,4,5] + x[2,3,2,6] <= 1
 move_2_5_14_33: x[2,1,4,5] + x[2,3,3,6] <= 1
 move_2_5_14_40: x[2,1,4,5] + x[2,4,0,6] <= 1
 move_2_5_14_41: x[2,1,4,5] + x[2,4,1,6] <= 1
 move_2_5_14_42: x[2,1,4,5] + x[2,4,2,6] <= 1
 move_2_5_14_43: x[2,1,4,5] + x[2,4,3,6] <= 1
 move_2_5_14_44: x[2,1,4,5] + x[2,4,4,6] <= 1
 move_2_5_20_01: x[2,0,1,6] + x[2,2,0,5] <= 1
 move_2_5_20_02: x[2,0,2,6] + x[2,2,0,5] <= 1
 move_2_5_20_03: x[2,0,3,6] + x[2,2,0,5] <= 1
 move_2_5_20_04: x[2,0,4,6] + x[2,2,0,5] <= 1
 move_2_5_20_12: x[2,1,2,6] + x[2,2,0,5] <= 1
 move_2_5_20_13: x[2,1,3,6] + x[2,2,0,5] <= 1
 move_2_5_20_14: x[2,1,4,6] + x[2,2,0,5] <= 1
 move_2_5_20_23: x[2,2,0,5] + x[2,2,3,6] <= 1
 move_2_5_20_24: x[2,2,0,5] + x[2,2,4,6] <= 1
 move_2_5_20_32: x[2,2,0,5] + x[2,3,2,6] <= 1
 move_2_5_20_33: x[2,2,0,5] + x[2,3,3,6] <= 1
 move_2_5_20_34: x[2,2,0,5] + x[2,3,4,6] <= 1
 move_2_5_20_41: x[2,2,0,5] + x[2,4,1,6] <= 1
 move_2_5_20_42: x[2,2,0,5] + x[2,4,2,6] <= 1
 move_2_5_20_43: x[2,2,0,5] + x[2,4,3,6] <= 1
 move_2_5_20_44: x[2,2,0,5] + x[2,4,4,6] <= 1
 move_2_5_21_00: x[2,0,0,6] + x[2,2,1,5] <= 1
 move_2_5_21_02: x[2,0,2,6] + x[2,2,1,5] <= 1
 move_2_5_21_03: x[2,0,3,6] + x[2,2,1,5] <= 1
 move_2_5_21_04: x[2,0,4,6] + x[2,2,1,5] <= 1
 move_2_5_21_13: x[2,1,3,6] + x[2,2,1,5] <= 1
 move_2_5_21_14: x[2,1,4,6] + x[2,2,1,5] <= 1
 move_2_5_21_24: x[2,2,1,5] + x[2,2,4,6] <= 1
 move_2_5_21_33: x[2,2,1,5] + x[2,3,3,6] <= 1
 move_2_5_21_34: x[2,2,1,5] + x[2,3,4,6] <= 1
 move_2_5_21_40: x[2,2,1,5] + x[2,4,0,6] <= 1
 move_2_5_21_42: x[2,2,1,5] + x[2,4,2,6] <= 1
 move_2_5_21_43: x[2,2,1,5] + x[2,4,3,6] <= 1
 move_2_5_21_44: x[2,2,1,5] + x[2,4,4,6] <= 1
 move_2_5_22_00: x[2,0,0,6] + x[2,2,2,5] <= 1
 move_2_5_22_01: x[2,0,1,6] + x[2,2,2,5] <= 1
 move_2_5_22_03: x[2,0,3,6] + x[2,2,2,5] <= 1
 move_2_5_22_04: x[2,0,4,6] + x[2,2,2,5] <= 1
 move_2_5_22_10: x[2,1,0,6] + x[2,2,2,5] <= 1
 move_2_5_22_14: x[2,1,4,6] + x[2,2,2,5] <= 1
 move_2_5_22_30: x[2,2,2,5] + x[2,3,0,6] <= 1
 move_2_5_22_34: x[2,2,2,5] + x[2,3,4,6] <= 1
 move_2_5_22_40: x[2,2,2,5] + x[2,4,0,6] <= 1
 move_2_5_22_41: x[2,2,2,5] + x[2,4,1,6] <= 1
 move_2_5_22_43: x[2,2,2,5] + x[2,4,3,6] <= 1
 move_2_5_22_44: x[2,2,2,5] + x[2,4,4,6] <= 1
 move_2_5_23_00: x[2,0,0,6] + x[2,2,3,5] <= 1
 move_2_5_23_01: x[2,0,1,6] + x[2,2,3,5] <= 1
 move_2_5_23_02: x[2,0,2,6] + x[2,2,3,5] <= 1
 move_2_5_23_04: x[2,0,4,6] + x[2,2,3,5] <= 1
 move_2_5_23_10: x[2,1,0,6] + x[2,2,3,5] <= 1
 move_2_5_23_11: x[2,1,1,6] + x[2,2,3,5] <= 1
 move_2_5_23_20: x[2,2,0,6] + x[2,2,3,5] <= 1
 move_2_5_23_30: x[2,2,3,5] + x[2,3,0,6] <= 1
 move_2_5_23_31: x[2,2,3,5] + x[2,3,1,6] <= 1
 move_2_5_23_40: x[2,2,3,5] + x[2,4,0,6] <= 1
 move_2_5_23_41: x[2,2,3,5] + x[2,4,1,6] <= 1
 move_2_5_23_42: x[2,2,3,5] + x[2,4,2,6] <= 1
 move_2_5_23_44: x[2,2,3,5] + x[2,4,4,6] <= 1
 move_2_5_24_00: x[2,0,0,6] + x[2,2,4,5] <= 1
 move_2_5_24_01: x[2,0,1,6] + x[2,2,4,5] <= 1
 move_2_5_24_02: x[2,0,2,6] + x[2,2,4,5] <= 1
 move_2_5_24_03: x[2,0,3,6] + x[2,2,4,5] <= 1
 move_2_5_24_10: x[2,1,0,6] + x[2,2,4,5] <= 1
 move_2_5_24_11: x[2,1,1,6] + x[2,2,4,5] <= 1
 move_2_5_24_12: x[2,1,2,6] + x[2,2,4,5] <= 1
 move_2_5_24_20: x[2,2,0,6] + x[2,2,4,5] <= 1
 move_2_5_24_21: x[2,2,1,6] + x[2,2,4,5] <= 1
 move_2_5_24_30: x[2,2,4,5] + x[2,3,0,6] <= 1
 move_2_5_24_31: x[2,2,4,5] + x[2,3,1,6] <= 1
 move_2_5_24_32: x[2,2,4,5] + x[2,3,2,6] <= 1
 move_2_5_24_40: x[2,2,4,5] + x[2,4,0,6] <= 1
 move_2_5_24_41: x[2,2,4,5] + x[2,4,1,6] <= 1
 move_2_5_24_42: x[2,2,4,5] + x[2,4,2,6] <= 1
 move_2_5_24_43: x[2,2,4,5] + x[2,4,3,6] <= 1
 move_2_5_30_00: x[2,0,0,6] + x[2,3,0,5] <= 1
 move_2_5_30_01: x[2,0,1,6] + x[2,3,0,5] <= 1
 move_2_5_30_02: x[2,0,2,6] + x[2,3,0,5] <= 1
 move_2_5_30_03: x[2,0,3,6] + x[2,3,0,5] <= 1
 move_2_5_30_04: x[2,0,4,6] + x[2,3,0,5] <= 1
 move_2_5_30_11: x[2,1,1,6] + x[2,3,0,5] <= 1
 move_2_5_30_12: x[2,1,2,6] + x[2,3,0,5] <= 1
 move_2_5_30_13: x[2,1,3,6] + x[2,3,0,5] <= 1
 move_2_5_30_14: x[2,1,4,6] + x[2,3,0,5] <= 1
 move_2_5_30_22: x[2,2,2,6] + x[2,3,0,5] <= 1
 move_2_5_30_23: x[2,2,3,6] + x[2,3,0,5] <= 1
 move_2_5_30_24: x[2,2,4,6] + x[2,3,0,5] <= 1
 move_2_5_30_33: x[2,3,0,5] + x[2,3,3,6] <= 1
 move_2_5_30_34: x[2,3,0,5] + x[2,3,4,6] <= 1
 move_2_5_30_42: x[2,3,0,5] + x[2,4,2,6] <= 1
 move_2_5_30_43: x[2,3,0,5] + x[2,4,3,6] <= 1
 move_2_5_30_44: x[2,3,0,5] + x[2,4,4,6] <= 1
 move_2_5_31_00: x[2,0,0,6] + x[2,3,1,5] <= 1
 move_2_5_31_01: x[2,0,1,6] + x[2,3,1,5] <= 1
 move_2_5_31_02: x[2,0,2,6] + x[2,3,1,5] <= 1
 move_2_5_31_03: x[2,0,3,6] + x[2,3,1,5] <= 1
 move_2_5_31_04: x[2,0,4,6] + x[2,3,1,5] <= 1
 move_2_5_31_10: x[2,1,0,6] + x[2,3,1,5] <= 1
 move_2_5_31_12: x[2,1,2,6] + x[2,3,1,5] <= 1
 move_2_5_31_13: x[2,1,3,6] + x[2,3,1,5] <= 1
 move_2_5_31_14: x[2,1,4,6] + x[2,3,1,5] <= 1
 move_2_5_31_23: x[2,2,3,6] + x[2,3,1,5] <= 1
 move_2_5_31_24: x[2,2,4,6] + x[2,3,1,5] <= 1
 move_2_5_31_34: x[2,3,1,5] + x[2,3,4,6] <= 1
 move_2_5_31_43: x[2,3,1,5] + x[2,4,3,6] <= 1
 move_2_5_31_44: x[2,3,1,5] + x[2,4,4,6] <= 1
 move_2_5_32_00: x[2,0,0,6] + x[2,3,2,5] <= 1
 move_2_5_32_01: x[2,0,1,6] + x[2,3,2,5] <= 1
 move_2_5_32_02: x[2,0,2,6] + x[2,3,2,5] <= 1
 move_2_5_32_03: x[2,0,3,6] + x[2,3,2,5] <= 1
 move_2_5_32_04: x[2,0,4,6] + x[2,3,2,5] <= 1
 move_2_5_32_10: x[2,1,0,6] + x[2,3,2,5] <= 1
 move_2_5_32_11: x[2,1,1,6] + x[2,3,2,5] <= 1
 move_2_5_32_13: x[2,1,3,6] + x[2,3,2,5] <= 1
 move_2_5_32_14: x[2,1,4,6] + x[2,3,2,5] <= 1
 move_2_5_32_20: x[2,2,0,6] + x[2,3,2,5] <= 1
 move_2_5_32_24: x[2,2,4,6] + x[2,3,2,5] <= 1
 move_2_5_32_40: x[2,3,2,5] + x[2,4,0,6] <= 1
 move_2_5_32_44: x[2,3,2,5] + x[2,4,4,6] <= 1
 move_2_5_33_00: x[2,0,0,6] + x[2,3,3,5] <= 1
 move_2_5_33_01: x[2,0,1,6] + x[2,3,3,5] <= 1
 move_2_5_33_02: x[2,0,2,6] + x[2,3,3,5] <= 1
 move_2_5_33_03: x[2,0,3,6] + x[2,3,3,5] <= 1
 move_2_5_33_04: x[2,0,4,6] + x[2,3,3,5] <= 1
 move_2_5_33_10: x[2,1,0,6] + x[2,3,3,5] <= 1
 move_2_5_33_11: x[2,1,1,6] + x[2,3,3,5] <= 1
 move_2_5_33_12: x[2,1,2,6] + x[2,3,3,5] <= 1
 move_2_5_33_14: x[2,1,4,6] + x[2,3,3,5] <= 1
 move_2_5_33_20: x[2,2,0,6] + x[2,3,3,5] <= 1
 move_2_5_33_21: x[2,2,1,6] + x[2,3,3,5] <= 1
 move_2_5_33_30: x[2,3,0,6] + x[2,3,3,5] <= 1
 move_2_5_33_40: x[2,3,3,5] + x[2,4,0,6] <= 1
 move_2_5_33_41: x[2,3,3,5] + x[2,4,1,6] <= 1
 move_2_5_34_00: x[2,0,0,6] + x[2,3,4,5] <= 1
 move_2_5_34_01: x[2,0,1,6] + x[2,3,4,5] <= 1
 move_2_5_34_02: x[2,0,2,6] + x[2,3,4,5] <= 1
 move_2_5_34_03: x[2,0,3,6] + x[2,3,4,5] <= 1
 move_2_5_34_04: x[2,0,4,6] + x[2,3,4,5] <= 1
 move_2_5_34_10: x[2,1,0,6] + x[2,3,4,5] <= 1
 move_2_5_34_11: x[2,1,1,6] + x[2,3,4,5] <= 1
 move_2_5_34_12: x[2,1,2,6] + x[2,3,4,5] <= 1
 move_2_5_34_13: x[2,1,3,6] + x[2,3,4,5] <= 1
 move_2_5_34_20: x[2,2,0,6] + x[2,3,4,5] <= 1
 move_2_5_34_21: x[2,2,1,6] + x[2,3,4,5] <= 1
 move_2_5_34_22: x[2,2,2,6] + x[2,3,4,5] <= 1
 move_2_5_34_30: x[2,3,0,6] + x[2,3,4,5] <= 1
 move_2_5_34_31: x[2,3,1,6] + x[2,3,4,5] <= 1
 move_2_5_34_40: x[2,3,4,5] + x[2,4,0,6] <= 1
 move_2_5_34_41: x[2,3,4,5] + x[2,4,1,6] <= 1
 move_2_5_34_42: x[2,3,4,5] + x[2,4,2,6] <= 1
 move_2_5_40_00: x[2,0,0,6] + x[2,4,0,5] <= 1
 move_2_5_40_01: x[2,0,1,6] + x[2,4,0,5] <= 1
 move_2_5_40_02: x[2,0,2,6] + x[2,4,0,5] <= 1
 move_2_5_40_03: x[2,0,3,6] + x[2,4,0,5] <= 1
 move_2_5_40_04: x[2,0,4,6] + x[2,4,0,5] <= 1
 move_2_5_40_10: x[2,1,0,6] + x[2,4,0,5] <= 1
 move_2_5_40_11: x[2,1,1,6] + x[2,4,0,5] <= 1
 move_2_5_40_12: x[2,1,2,6] + x[2,4,0,5] <= 1
 move_2_5_40_13: x[2,1,3,6] + x[2,4,0,5] <= 1
 move_2_5_40_14: x[2,1,4,6] + x[2,4,0,5] <= 1
 move_2_5_40_21: x[2,2,1,6] + x[2,4,0,5] <= 1
 move_2_5_40_22: x[2,2,2,6] + x[2,4,0,5] <= 1
 move_2_5_40_23: x[2,2,3,6] + x[2,4,0,5] <= 1
 move_2_5_40_24: x[2,2,4,6] + x[2,4,0,5] <= 1
 move_2_5_40_32: x[2,3,2,6] + x[2,4,0,5] <= 1
 move_2_5_40_33: x[2,3,3,6] + x[2,4,0,5] <= 1
 move_2_5_40_34: x[2,3,4,6] + x[2,4,0,5] <= 1
 move_2_5_40_43: x[2,4,0,5] + x[2,4,3,6] <= 1
 move_2_5_40_44: x[2,4,0,5] + x[2,4,4,6] <= 1
 move_2_5_41_00: x[2,0,0,6] + x[2,4,1,5] <= 1
 move_2_5_41_01: x[2,0,1,6] + x[2,4,1,5] <= 1
 move_2_5_41_02: x[2,0,2,6] + x[2,4,1,5] <= 1
 move_2_5_41_03: x[2,0,3,6] + x[2,4,1,5] <= 1
 move_2_5_41_04: x[2,0,4,6] + x[2,4,1,5] <= 1
 move_2_5_41_10: x[2,1,0,6] + x[2,4,1,5] <= 1
 move_2_5_41_11: x[2,1,1,6] + x[2,4,1,5] <= 1
 move_2_5_41_12: x[2,1,2,6] + x[2,4,1,5] <= 1
 move_2_5_41_13: x[2,1,3,6] + x[2,4,1,5] <= 1
 move_2_5_41_14: x[2,1,4,6] + x[2,4,1,5] <= 1
 move_2_5_41_20: x[2,2,0,6] + x[2,4,1,5] <= 1
 move_2_5_41_22: x[2,2,2,6] + x[2,4,1,5] <= 1
 move_2_5_41_23: x[2,2,3,6] + x[2,4,1,5] <= 1
 move_2_5_41_24: x[2,2,4,6] + x[2,4,1,5] <= 1
 move_2_5_41_33: x[2,3,3,6] + x[2,4,1,5] <= 1
 move_2_5_41_34: x[2,3,4,6] + x[2,4,1,5] <= 1
 move_2_5_41_44: x[2,4,1,5] + x[2,4,4,6] <= 1
 move_2_5_42_00: x[2,0,0,6] + x[2,4,2,5] <= 1
 move_2_5_42_01: x[2,0,1,6] + x[2,4,2,5] <= 1
 move_2_5_42_02: x[2,0,2,6] + x[2,4,2,5] <= 1
 move_2_5_42_03: x[2,0,3,6] + x[2,4,2,5] <= 1
 move_2_5_42_04: x[2,0,4,6] + x[2,4,2,5] <= 1
 move_2_5_42_10: x[2,1,0,6] + x[2,4,2,5] <= 1
 move_2_5_42_11: x[2,1,1,6] + x[2,4,2,5] <= 1
 move_2_5_42_12: x[2,1,2,6] + x[2,4,2,5] <= 1
 move_2_5_42_13: x[2,1,3,6] + x[2,4,2,5] <= 1
 move_2_5_42_14: x[2,1,4,6] + x[2,4,2,5] <= 1
 move_2_5_42_20: x[2,2,0,6] + x[2,4,2,5] <= 1
 move_2_5_42_21: x[2,2,1,6] + x[2,4,2,5] <= 1
 move_2_5_42_23: x[2,2,3,6] + x[2,4,2,5] <= 1
 move_2_5_42_24: x[2,2,4,6] + x[2,4,2,5] <= 1
 move_2_5_42_30: x[2,3,0,6] + x[2,4,2,5] <= 1
 move_2_5_42_34: x[2,3,4,6] + x[2,4,2,5] <= 1
 move_2_5_43_00: x[2,0,0,6] + x[2,4,3,5] <= 1
 move_2_5_43_01: x[2,0,1,6] + x[2,4,3,5] <= 1
 move_2_5_43_02: x[2,0,2,6] + x[2,4,3,5] <= 1
 move_2_5_43_03: x[2,0,3,6] + x[2,4,3,5] <= 1
 move_2_5_43_04: x[2,0,4,6] + x[2,4,3,5] <= 1
 move_2_5_43_10: x[2,1,0,6] + x[2,4,3,5] <= 1
 move_2_5_43_11: x[2,1,1,6] + x[2,4,3,5] <= 1
 move_2_5_43_12: x[2,1,2,6] + x[2,4,3,5] <= 1
 move_2_5_43_13: x[2,1,3,6] + x[2,4,3,5] <= 1
 move_2_5_43_14: x[2,1,4,6] + x[2,4,3,5] <= 1
 move_2_5_43_20: x[2,2,0,6] + x[2,4,3,5] <= 1
 move_2_5_43_21: x[2,2,1,6] + x[2,4,3,5] <= 1
 move_2_5_43_22: x[2,2,2,6] + x[2,4,3,5] <= 1
 move_2_5_43_24: x[2,2,4,6] + x[2,4,3,5] <= 1
 move_2_5_43_30: x[2,3,0,6] + x[2,4,3,5] <= 1
 move_2_5_43_31: x[2,3,1,6] + x[2,4,3,5] <= 1
 move_2_5_43_40: x[2,4,0,6] + x[2,4,3,5] <= 1
 move_2_5_44_00: x[2,0,0,6] + x[2,4,4,5] <= 1
 move_2_5_44_01: x[2,0,1,6] + x[2,4,4,5] <= 1
 move_2_5_44_02: x[2,0,2,6] + x[2,4,4,5] <= 1
 move_2_5_44_03: x[2,0,3,6] + x[2,4,4,5] <= 1
 move_2_5_44_04: x[2,0,4,6] + x[2,4,4,5] <= 1
 move_2_5_44_10: x[2,1,0,6] + x[2,4,4,5] <= 1
 move_2_5_44_11: x[2,1,1,6] + x[2,4,4,5] <= 1
 move_2_5_44_12: x[2,1,2,6] + x[2,4,4,5] <= 1
 move_2_5_44_13: x[2,1,3,6] + x[2,4,4,5] <= 1
 move_2_5_44_14: x[2,1,4,6] + x[2,4,4,5] <= 1
 move_2_5_44_20: x[2,2,0,6] + x[2,4,4,5] <= 1
 move_2_5_44_21: x[2,2,1,6] + x[2,4,4,5] <= 1
 move_2_5_44_22: x[2,2,2,6] + x[2,4,4,5] <= 1
 move_2_5_44_23: x[2,2,3,6] + x[2,4,4,5] <= 1
 move_2_5_44_30: x[2,3,0,6] + x[2,4,4,5] <= 1
 move_2_5_44_31: x[2,3,1,6] + x[2,4,4,5] <= 1
 move_2_5_44_32: x[2,3,2,6] + x[2,4,4,5] <= 1
 move_2_5_44_40: x[2,4,0,6] + x[2,4,4,5] <= 1
 move_2_5_44_41: x[2,4,1,6] + x[2,4,4,5] <= 1
 move_2_6_00_03: x[2,0,0,6] + x[2,0,3,7] <= 1
 move_2_6_00_04: x[2,0,0,6] + x[2,0,4,7] <= 1
 move_2_6_00_12: x[2,0,0,6] + x[2,1,2,7] <= 1
 move_2_6_00_13: x[2,0,0,6] + x[2,1,3,7] <= 1
 move_2_6_00_14: x[2,0,0,6] + x[2,1,4,7] <= 1
 move_2_6_00_21: x[2,0,0,6] + x[2,2,1,7] <= 1
 move_2_6_00_22: x[2,0,0,6] + x[2,2,2,7] <= 1
 move_2_6_00_23: x[2,0,0,6] + x[2,2,3,7] <= 1
 move_2_6_00_24: x[2,0,0,6] + x[2,2,4,7] <= 1
 move_2_6_00_30: x[2,0,0,6] + x[2,3,0,7] <= 1
 move_2_6_00_31: x[2,0,0,6] + x[2,3,1,7] <= 1
 move_2_6_00_32: x[2,0,0,6] + x[2,3,2,7] <= 1
 move_2_6_00_33: x[2,0,0,6] + x[2,3,3,7] <= 1
 move_2_6_00_34: x[2,0,0,6] + x[2,3,4,7] <= 1
 move_2_6_00_40: x[2,0,0,6] + x[2,4,0,7] <= 1
 move_2_6_00_41: x[2,0,0,6] + x[2,4,1,7] <= 1
 move_2_6_00_42: x[2,0,0,6] + x[2,4,2,7] <= 1
 move_2_6_00_43: x[2,0,0,6] + x[2,4,3,7] <= 1
 move_2_6_00_44: x[2,0,0,6] + x[2,4,4,7] <= 1
 move_2_6_01_04: x[2,0,1,6] + x[2,0,4,7] <= 1
 move_2_6_01_13: x[2,0,1,6] + x[2,1,3,7] <= 1
 move_2_6_01_14: x[2,0,1,6] + x[2,1,4,7] <= 1
 move_2_6_01_20: x[2,0,1,6] + x[2,2,0,7] <= 1
 move_2_6_01_22: x[2,0,1,6] + x[2,2,2,7] <= 1
 move_2_6_01_23: x[2,0,1,6] + x[2,2,3,7] <= 1
 move_2_6_01_24: x[2,0,1,6] + x[2,2,4,7] <= 1
 move_2_6_01_30: x[2,0,1,6] + x[2,3,0,7] <= 1
 move_2_6_01_31: x[2,0,1,6] + x[2,3,1,7] <= 1
 move_2_6_01_32: x[2,0,1,6] + x[2,3,2,7] <= 1
 move_2_6_01_33: x[2,0,1,6] + x[2,3,3,7] <= 1
 move_2_6_01_34: x[2,0,1,6] + x[2,3,4,7] <= 1
 move_2_6_01_40: x[2,0,1,6] + x[2,4,0,7] <= 1
 move_2_6_01_41: x[2,0,1,6] + x[2,4,1,7] <= 1
 move_2_6_01_42: x[2,0,1,6] + x[2,4,2,7] <= 1
 move_2_6_01_43: x[2,0,1,6] + x[2,4,3,7] <= 1
 move_2_6_01_44: x[2,0,1,6] + x[2,4,4,7] <= 1
 move_2_6_02_10: x[2,0,2,6] + x[2,1,0,7] <= 1
 move_2_6_02_14: x[2,0,2,6] + x[2,1,4,7] <= 1
 move_2_6_02_20: x[2,0,2,6] + x[2,2,0,7] <= 1
 move_2_6_02_21: x[2,0,2,6] + x[2,2,1,7] <= 1
 move_2_6_02_23: x[2,0,2,6] + x[2,2,3,7] <= 1
 move_2_6_02_24: x[2,0,2,6] + x[2,2,4,7] <= 1
 move_2_6_02_30: x[2,0,2,6] + x[2,3,0,7] <= 1
 move_2_6_02_31: x[2,0,2,6] + x[2,3,1,7] <= 1
 move_2_6_02_32: x[2,0,2,6] + x[2,3,2,7] <= 1
 move_2_6_02_33: x[2,0,2,6] + x[2,3,3,7] <= 1
 move_2_6_02_34: x[2,0,2,6] + x[2,3,4,7] <= 1
 move_2_6_02_40: x[2,0,2,6] + x[2,4,0,7] <= 1
 move_2_6_02_41: x[2,0,2,6] + x[2,4,1,7] <= 1
 move_2_6_02_42: x[2,0,2,6] + x[2,4,2,7] <= 1
 move_2_6_02_43: x[2,0,2,6] + x[2,4,3,7] <= 1
 move_2_6_02_44: x[2,0,2,6] + x[2,4,4,7] <= 1
 move_2_6_03_00: x[2,0,0,7] + x[2,0,3,6] <= 1
 move_2_6_03_10: x[2,0,3,6] + x[2,1,0,7] <= 1
 move_2_6_03_11: x[2,0,3,6] + x[2,1,1,7] <= 1
 move_2_6_03_20: x[2,0,3,6] + x[2,2,0,7] <= 1
 move_2_6_03_21: x[2,0,3,6] + x[2,2,1,7] <= 1
 move_2_6_03_22: x[2,0,3,6] + x[2,2,2,7] <= 1
 move_2_6_03_24: x[2,0,3,6] + x[2,2,4,7] <= 1
 move_2_6_03_30: x[2,0,3,6] + x[2,3,0,7] <= 1
 move_2_6_03_31: x[2,0,3,6] + x[2,3,1,7] <= 1
 move_2_6_03_32: x[2,0,3,6] + x[2,3,2,7] <= 1
 move_2_6_03_33: x[2,0,3,6] + x[2,3,3,7] <= 1
 move_2_6_03_34: x[2,0,3,6] + x[2,3,4,7] <= 1
 move_2_6_03_40: x[2,0,3,6] + x[2,4,0,7] <= 1
 move_2_6_03_41: x[2,0,3,6] + x[2,4,1,7] <= 1
 move_2_6_03_42: x[2,0,3,6] + x[2,4,2,7] <= 1
 move_2_6_03_43: x[2,0,3,6] + x[2,4,3,7] <= 1
 move_2_6_03_44: x[2,0,3,6] + x[2,4,4,7] <= 1
 move_2_6_04_00: x[2,0,0,7] + x[2,0,4,6] <= 1
 move_2_6_04_01: x[2,0,1,7] + x[2,0,4,6] <= 1
 move_2_6_04_10: x[2,0,4,6] + x[2,1,0,7] <= 1
 move_2_6_04_11: x[2,0,4,6] + x[2,1,1,7] <= 1
 move_2_6_04_12: x[2,0,4,6] + x[2,1,2,7] <= 1
 move_2_6_04_20: x[2,0,4,6] + x[2,2,0,7] <= 1
 move_2_6_04_21: x[2,0,4,6] + x[2,2,1,7] <= 1
 move_2_6_04_22: x[2,0,4,6] + x[2,2,2,7] <= 1
 move_2_6_04_23: x[2,0,4,6] + x[2,2,3,7] <= 1
 move_2_6_04_30: x[2,0,4,6] + x[2,3,0,7] <= 1
 move_2_6_04_31: x[2,0,4,6] + x[2,3,1,7] <= 1
 move_2_6_04_32: x[2,0,4,6] + x[2,3,2,7] <= 1
 move_2_6_04_33: x[2,0,4,6] + x[2,3,3,7] <= 1
 move_2_6_04_34: x[2,0,4,6] + x[2,3,4,7] <= 1
 move_2_6_04_40: x[2,0,4,6] + x[2,4,0,7] <= 1
 move_2_6_04_41: x[2,0,4,6] + x[2,4,1,7] <= 1
 move_2_6_04_42: x[2,0,4,6] + x[2,4,2,7] <= 1
 move_2_6_04_43: x[2,0,4,6] + x[2,4,3,7] <= 1
 move_2_6_04_44: x[2,0,4,6] + x[2,4,4,7] <= 1
 move_2_6_10_02: x[2,0,2,7] + x[2,1,0,6] <= 1
 move_2_6_10_03: x[2,0,3,7] + x[2,1,0,6] <= 1
 move_2_6_10_04: x[2,0,4,7] + x[2,1,0,6] <= 1
 move_2_6_10_13: x[2,1,0,6] + x[2,1,3,7] <= 1
 move_2_6_10_14: x[2,1,0,6] + x[2,1,4,7] <= 1
 move_2_6_10_22: x[2,1,0,6] + x[2,2,2,7] <= 1
 move_2_6_10_23: x[2,1,0,6] + x[2,2,3,7] <= 1
 move_2_6_10_24: x[2,1,0,6] + x[2,2,4,7] <= 1
 move_2_6_10_31: x[2,1,0,6] + x[2,3,1,7] <= 1
 move_2_6_10_32: x[2,1,0,6] + x[2,3,2,7] <= 1
 move_2_6_10_33: x[2,1,0,6] + x[2,3,3,7] <= 1
 move_2_6_10_34: x[2,1,0,6] + x[2,3,4,7] <= 1
 move_2_6_10_40: x[2,1,0,6] + x[2,4,0,7] <= 1
 move_2_6_10_41: x[2,1,0,6] + x[2,4,1,7] <= 1
 move_2_6_10_42: x[2,1,0,6] + x[2,4,2,7] <= 1
 move_2_6_10_43: x[2,1,0,6] + x[2,4,3,7] <= 1
 move_2_6_10_44: x[2,1,0,6] + x[2,4,4,7] <= 1
 move_2_6_11_03: x[2,0,3,7] + x[2,1,1,6] <= 1
 move_2_6_11_04: x[2,0,4,7] + x[2,1,1,6] <= 1
 move_2_6_11_14: x[2,1,1,6] + x[2,1,4,7] <= 1
 move_2_6_11_23: x[2,1,1,6] + x[2,2,3,7] <= 1
 move_2_6_11_24: x[2,1,1,6] + x[2,2,4,7] <= 1
 move_2_6_11_30: x[2,1,1,6] + x[2,3,0,7] <= 1
 move_2_6_11_32: x[2,1,1,6] + x[2,3,2,7] <= 1
 move_2_6_11_33: x[2,1,1,6] + x[2,3,3,7] <= 1
 move_2_6_11_34: x[2,1,1,6] + x[2,3,4,7] <= 1
 move_2_6_11_40: x[2,1,1,6] + x[2,4,0,7] <= 1
 move_2_6_11_41: x[2,1,1,6] + x[2,4,1,7] <= 1
 move_2_6_11_42: x[2,1,1,6] + x[2,4,2,7] <= 1
 move_2_6_11_43: x[2,1,1,6] + x[2,4,3,7] <= 1
 move_2_6_11_44: x[2,1,1,6] + x[2,4,4,7] <= 1
 move_2_6_12_00: x[2,0,0,7] + x[2,1,2,6] <= 1
 move_2_6_12_04: x[2,0,4,7] + x[2,1,2,6] <= 1
 move_2_6_12_20: x[2,1,2,6] + x[2,2,0,7] <= 1
 move_2_6_12_24: x[2,1,2,6] + x[2,2,4,7] <= 1
 move_2_6_12_30: x[2,1,2,6] + x[2,3,0,7] <= 1
 move_2_6_12_31: x[2,1,2,6] + x[2,3,1,7] <= 1
 move_2_6_12_33: x[2,1,2,6] + x[2,3,3,7] <= 1
 move_2_6_12_34: x[2,1,2,6] + x[2,3,4,7] <= 1
 move_2_6_12_40: x[2,1,2,6] + x[2,4,0,7] <= 1
 move_2_6_12_41: x[2,1,2,6] + x[2,4,1,7] <= 1
 move_2_6_12_42: x[2,1,2,6] + x[2,4,2,7] <= 1
 move_2_6_12_43: x[2,1,2,6] + x[2,4,3,7] <= 1
 move_2_6_12_44: x[2,1,2,6] + x[2,4,4,7] <= 1
 move_2_6_13_00: x[2,0,0,7] + x[2,1,3,6] <= 1
 move_2_6_13_01: x[2,0,1,7] + x[2,1,3,6] <= 1
 move_2_6_13_10: x[2,1,0,7] + x[2,1,3,6] <= 1
 move_2_6_13_20: x[2,1,3,6] + x[2,2,0,7] <= 1
 move_2_6_13_21: x[2,1,3,6] + x[2,2,1,7] <= 1
 move_2_6_13_30: x[2,1,3,6] + x[2,3,0,7] <= 1
 move_2_6_13_31: x[2,1,3,6] + x[2,3,1,7] <= 1
 move_2_6_13_32: x[2,1,3,6] + x[2,3,2,7] <= 1
 move_2_6_13_34: x[2,1,3,6] + x[2,3,4,7] <= 1
 move_2_6_13_40: x[2,1,3,6] + x[2,4,0,7] <= 1
 move_2_6_13_41: x[2,1,3,6] + x[2,4,1,7] <= 1
 move_2_6_13_42: x[2,1,3,6] + x[2,4,2,7] <= 1
 move_2_6_13_43: x[2,1,3,6] + x[2,4,3,7] <= 1
 move_2_6_13_44: x[2,1,3,6] + x[2,4,4,7] <= 1
 move_2_6_14_00: x[2,0,0,7] + x[2,1,4,6] <= 1
 move_2_6_14_01: x[2,0,1,7] + x[2,1,4,6] <= 1
 move_2_6_14_02: x[2,0,2,7] + x[2,1,4,6] <= 1
 move_2_6_14_10: x[2,1,0,7] + x[2,1,4,6] <= 1
 move_2_6_14_11: x[2,1,1,7] + x[2,1,4,6] <= 1
 move_2_6_14_20: x[2,1,4,6] + x[2,2,0,7] <= 1
 move_2_6_14_21: x[2,1,4,6] + x[2,2,1,7] <= 1
 move_2_6_14_22: x[2,1,4,6] + x[2,2,2,7] <= 1
 move_2_6_14_30: x[2,1,4,6] + x[2,3,0,7] <= 1
 move_2_6_14_31: x[2,1,4,6] + x[2,3,1,7] <= 1
 move_2_6_14_32: x[2,1,4,6] + x[2,3,2,7] <= 1
 move_2_6_14_33: x[2,1,4,6] + x[2,3,3,7] <= 1
 move_2_6_14_40: x[2,1,4,6] + x[2,4,0,7] <= 1
 move_2_6_14_41: x[2,1,4,6] + x[2,4,1,7] <= 1
 move_2_6_14_42: x[2,1,4,6] + x[2,4,2,7] <= 1
 move_2_6_14_43: x[2,1,4,6] + x[2,4,3,7] <= 1
 move_2_6_14_44: x[2,1,4,6] + x[2,4,4,7] <= 1
 move_2_6_20_01: x[2,0,1,7] + x[2,2,0,6] <= 1
 move_2_6_20_02: x[2,0,2,7] + x[2,2,0,6] <= 1
 move_2_6_20_03: x[2,0,3,7] + x[2,2,0,6] <= 1
 move_2_6_20_04: x[2,0,4,7] + x[2,2,0,6] <= 1
 move_2_6_20_12: x[2,1,2,7] + x[2,2,0,6] <= 1
 move_2_6_20_13: x[2,1,3,7] + x[2,2,0,6] <= 1
 move_2_6_20_14: x[2,1,4,7] + x[2,2,0,6] <= 1
 move_2_6_20_23: x[2,2,0,6] + x[2,2,3,7] <= 1
 move_2_6_20_24: x[2,2,0,6] + x[2,2,4,7] <= 1
 move_2_6_20_32: x[2,2,0,6] + x[2,3,2,7] <= 1
 move_2_6_20_33: x[2,2,0,6] + x[2,3,3,7] <= 1
 move_2_6_20_34: x[2,2,0,6] + x[2,3,4,7] <= 1
 move_2_6_20_41: x[2,2,0,6] + x[2,4,1,7] <= 1
 move_2_6_20_42: x[2,2,0,6] + x[2,4,2,7] <= 1
 move_2_6_20_43: x[2,2,0,6] + x[2,4,3,7] <= 1
 move_2_6_20_44: x[2,2,0,6] + x[2,4,4,7] <= 1
 move_2_6_21_00: x[2,0,0,7] + x[2,2,1,6] <= 1
 move_2_6_21_02: x[2,0,2,7] + x[2,2,1,6] <= 1
 move_2_6_21_03: x[2,0,3,7] + x[2,2,1,6] <= 1
 move_2_6_21_04: x[2,0,4,7] + x[2,2,1,6] <= 1
 move_2_6_21_13: x[2,1,3,7] + x[2,2,1,6] <= 1
 move_2_6_21_14: x[2,1,4,7] + x[2,2,1,6] <= 1
 move_2_6_21_24: x[2,2,1,6] + x[2,2,4,7] <= 1
 move_2_6_21_33: x[2,2,1,6] + x[2,3,3,7] <= 1
 move_2_6_21_34: x[2,2,1,6] + x[2,3,4,7] <= 1
 move_2_6_21_40: x[2,2,1,6] + x[2,4,0,7] <= 1
 move_2_6_21_42: x[2,2,1,6] + x[2,4,2,7] <= 1
 move_2_6_21_43: x[2,2,1,6] + x[2,4,3,7] <= 1
 move_2_6_21_44: x[2,2,1,6] + x[2,4,4,7] <= 1
 move_2_6_22_00: x[2,0,0,7] + x[2,2,2,6] <= 1
 move_2_6_22_01: x[2,0,1,7] + x[2,2,2,6] <= 1
 move_2_6_22_03: x[2,0,3,7] + x[2,2,2,6] <= 1
 move_2_6_22_04: x[2,0,4,7] + x[2,2,2,6] <= 1
 move_2_6_22_10: x[2,1,0,7] + x[2,2,2,6] <= 1
 move_2_6_22_14: x[2,1,4,7] + x[2,2,2,6] <= 1
 move_2_6_22_30: x[2,2,2,6] + x[2,3,0,7] <= 1
 move_2_6_22_34: x[2,2,2,6] + x[2,3,4,7] <= 1
 move_2_6_22_40: x[2,2,2,6] + x[2,4,0,7] <= 1
 move_2_6_22_41: x[2,2,2,6] + x[2,4,1,7] <= 1
 move_2_6_22_43: x[2,2,2,6] + x[2,4,3,7] <= 1
 move_2_6_22_44: x[2,2,2,6] + x[2,4,4,7] <= 1
 move_2_6_23_00: x[2,0,0,7] + x[2,2,3,6] <= 1
 move_2_6_23_01: x[2,0,1,7] + x[2,2,3,6] <= 1
 move_2_6_23_02: x[2,0,2,7] + x[2,2,3,6] <= 1
 move_2_6_23_04: x[2,0,4,7] + x[2,2,3,6] <= 1
 move_2_6_23_10: x[2,1,0,7] + x[2,2,3,6] <= 1
 move_2_6_23_11: x[2,1,1,7] + x[2,2,3,6] <= 1
 move_2_6_23_20: x[2,2,0,7] + x[2,2,3,6] <= 1
 move_2_6_23_30: x[2,2,3,6] + x[2,3,0,7] <= 1
 move_2_6_23_31: x[2,2,3,6] + x[2,3,1,7] <= 1
 move_2_6_23_40: x[2,2,3,6] + x[2,4,0,7] <= 1
 move_2_6_23_41: x[2,2,3,6] + x[2,4,1,7] <= 1
 move_2_6_23_42: x[2,2,3,6] + x[2,4,2,7] <= 1
 move_2_6_23_44: x[2,2,3,6] + x[2,4,4,7] <= 1
 move_2_6_24_00: x[2,0,0,7] + x[2,2,4,6] <= 1
 move_2_6_24_01: x[2,0,1,7] + x[2,2,4,6] <= 1
 move_2_6_24_02: x[2,0,2,7] + x[2,2,4,6] <= 1
 move_2_6_24_03: x[2,0,3,7] + x[2,2,4,6] <= 1
 move_2_6_24_10: x[2,1,0,7] + x[2,2,4,6] <= 1
 move_2_6_24_11: x[2,1,1,7] + x[2,2,4,6] <= 1
 move_2_6_24_12: x[2,1,2,7] + x[2,2,4,6] <= 1
 move_2_6_24_20: x[2,2,0,7] + x[2,2,4,6] <= 1
 move_2_6_24_21: x[2,2,1,7] + x[2,2,4,6] <= 1
 move_2_6_24_30: x[2,2,4,6] + x[2,3,0,7] <= 1
 move_2_6_24_31: x[2,2,4,6] + x[2,3,1,7] <= 1
 move_2_6_24_32: x[2,2,4,6] + x[2,3,2,7] <= 1
 move_2_6_24_40: x[2,2,4,6] + x[2,4,0,7] <= 1
 move_2_6_24_41: x[2,2,4,6] + x[2,4,1,7] <= 1
 move_2_6_24_42: x[2,2,4,6] + x[2,4,2,7] <= 1
 move_2_6_24_43: x[2,2,4,6] + x[2,4,3,7] <= 1
 move_2_6_30_00: x[2,0,0,7] + x[2,3,0,6] <= 1
 move_2_6_30_01: x[2,0,1,7] + x[2,3,0,6] <= 1
 move_2_6_30_02: x[2,0,2,7] + x[2,3,0,6] <= 1
 move_2_6_30_03: x[2,0,3,7] + x[2,3,0,6] <= 1
 move_2_6_30_04: x[2,0,4,7] + x[2,3,0,6] <= 1
 move_2_6_30_11: x[2,1,1,7] + x[2,3,0,6] <= 1
 move_2_6_30_12: x[2,1,2,7] + x[2,3,0,6] <= 1
 move_2_6_30_13: x[2,1,3,7] + x[2,3,0,6] <= 1
 move_2_6_30_14: x[2,1,4,7] + x[2,3,0,6] <= 1
 move_2_6_30_22: x[2,2,2,7] + x[2,3,0,6] <= 1
 move_2_6_30_23: x[2,2,3,7] + x[2,3,0,6] <= 1
 move_2_6_30_24: x[2,2,4,7] + x[2,3,0,6] <= 1
 move_2_6_30_33: x[2,3,0,6] + x[2,3,3,7] <= 1
 move_2_6_30_34: x[2,3,0,6] + x[2,3,4,7] <= 1
 move_2_6_30_42: x[2,3,0,6] + x[2,4,2,7] <= 1
 move_2_6_30_43: x[2,3,0,6] + x[2,4,3,7] <= 1
 move_2_6_30_44: x[2,3,0,6] + x[2,4,4,7] <= 1
 move_2_6_31_00: x[2,0,0,7] + x[2,3,1,6] <= 1
 move_2_6_31_01: x[2,0,1,7] + x[2,3,1,6] <= 1
 move_2_6_31_02: x[2,0,2,7] + x[2,3,1,6] <= 1
 move_2_6_31_03: x[2,0,3,7] + x[2,3,1,6] <= 1
 move_2_6_31_04: x[2,0,4,7] + x[2,3,1,6] <= 1
 move_2_6_31_10: x[2,1,0,7] + x[2,3,1,6] <= 1
 move_2_6_31_12: x[2,1,2,7] + x[2,3,1,6] <= 1
 move_2_6_31_13: x[2,1,3,7] + x[2,3,1,6] <= 1
 move_2_6_31_14: x[2,1,4,7] + x[2,3,1,6] <= 1
 move_2_6_31_23: x[2,2,3,7] + x[2,3,1,6] <= 1
 move_2_6_31_24: x[2,2,4,7] + x[2,3,1,6] <= 1
 move_2_6_31_34: x[2,3,1,6] + x[2,3,4,7] <= 1
 move_2_6_31_43: x[2,3,1,6] + x[2,4,3,7] <= 1
 move_2_6_31_44: x[2,3,1,6] + x[2,4,4,7] <= 1
 move_2_6_32_00: x[2,0,0,7] + x[2,3,2,6] <= 1
 move_2_6_32_01: x[2,0,1,7] + x[2,3,2,6] <= 1
 move_2_6_32_02: x[2,0,2,7] + x[2,3,2,6] <= 1
 move_2_6_32_03: x[2,0,3,7] + x[2,3,2,6] <= 1
 move_2_6_32_04: x[2,0,4,7] + x[2,3,2,6] <= 1
 move_2_6_32_10: x[2,1,0,7] + x[2,3,2,6] <= 1
 move_2_6_32_11: x[2,1,1,7] + x[2,3,2,6] <= 1
 move_2_6_32_13: x[2,1,3,7] + x[2,3,2,6] <= 1
 move_2_6_32_14: x[2,1,4,7] + x[2,3,2,6] <= 1
 move_2_6_32_20: x[2,2,0,7] + x[2,3,2,6] <= 1
 move_2_6_32_24: x[2,2,4,7] + x[2,3,2,6] <= 1
 move_2_6_32_40: x[2,3,2,6] + x[2,4,0,7] <= 1
 move_2_6_32_44: x[2,3,2,6] + x[2,4,4,7] <= 1
 move_2_6_33_00: x[2,0,0,7] + x[2,3,3,6] <= 1
 move_2_6_33_01: x[2,0,1,7] + x[2,3,3,6] <= 1
 move_2_6_33_02: x[2,0,2,7] + x[2,3,3,6] <= 1
 move_2_6_33_03: x[2,0,3,7] + x[2,3,3,6] <= 1
 move_2_6_33_04: x[2,0,4,7] + x[2,3,3,6] <= 1
 move_2_6_33_10: x[2,1,0,7] + x[2,3,3,6] <= 1
 move_2_6_33_11: x[2,1,1,7] + x[2,3,3,6] <= 1
 move_2_6_33_12: x[2,1,2,7] + x[2,3,3,6] <= 1
 move_2_6_33_14: x[2,1,4,7] + x[2,3,3,6] <= 1
 move_2_6_33_20: x[2,2,0,7] + x[2,3,3,6] <= 1
 move_2_6_33_21: x[2,2,1,7] + x[2,3,3,6] <= 1
 move_2_6_33_30: x[2,3,0,7] + x[2,3,3,6] <= 1
 move_2_6_33_40: x[2,3,3,6] + x[2,4,0,7] <= 1
 move_2_6_33_41: x[2,3,3,6] + x[2,4,1,7] <= 1
 move_2_6_34_00: x[2,0,0,7] + x[2,3,4,6] <= 1
 move_2_6_34_01: x[2,0,1,7] + x[2,3,4,6] <= 1
 move_2_6_34_02: x[2,0,2,7] + x[2,3,4,6] <= 1
 move_2_6_34_03: x[2,0,3,7] + x[2,3,4,6] <= 1
 move_2_6_34_04: x[2,0,4,7] + x[2,3,4,6] <= 1
 move_2_6_34_10: x[2,1,0,7] + x[2,3,4,6] <= 1
 move_2_6_34_11: x[2,1,1,7] + x[2,3,4,6] <= 1
 move_2_6_34_12: x[2,1,2,7] + x[2,3,4,6] <= 1
 move_2_6_34_13: x[2,1,3,7] + x[2,3,4,6] <= 1
 move_2_6_34_20: x[2,2,0,7] + x[2,3,4,6] <= 1
 move_2_6_34_21: x[2,2,1,7] + x[2,3,4,6] <= 1
 move_2_6_34_22: x[2,2,2,7] + x[2,3,4,6] <= 1
 move_2_6_34_30: x[2,3,0,7] + x[2,3,4,6] <= 1
 move_2_6_34_31: x[2,3,1,7] + x[2,3,4,6] <= 1
 move_2_6_34_40: x[2,3,4,6] + x[2,4,0,7] <= 1
 move_2_6_34_41: x[2,3,4,6] + x[2,4,1,7] <= 1
 move_2_6_34_42: x[2,3,4,6] + x[2,4,2,7] <= 1
 move_2_6_40_00: x[2,0,0,7] + x[2,4,0,6] <= 1
 move_2_6_40_01: x[2,0,1,7] + x[2,4,0,6] <= 1
 move_2_6_40_02: x[2,0,2,7] + x[2,4,0,6] <= 1
 move_2_6_40_03: x[2,0,3,7] + x[2,4,0,6] <= 1
 move_2_6_40_04: x[2,0,4,7] + x[2,4,0,6] <= 1
 move_2_6_40_10: x[2,1,0,7] + x[2,4,0,6] <= 1
 move_2_6_40_11: x[2,1,1,7] + x[2,4,0,6] <= 1
 move_2_6_40_12: x[2,1,2,7] + x[2,4,0,6] <= 1
 move_2_6_40_13: x[2,1,3,7] + x[2,4,0,6] <= 1
 move_2_6_40_14: x[2,1,4,7] + x[2,4,0,6] <= 1
 move_2_6_40_21: x[2,2,1,7] + x[2,4,0,6] <= 1
 move_2_6_40_22: x[2,2,2,7] + x[2,4,0,6] <= 1
 move_2_6_40_23: x[2,2,3,7] + x[2,4,0,6] <= 1
 move_2_6_40_24: x[2,2,4,7] + x[2,4,0,6] <= 1
 move_2_6_40_32: x[2,3,2,7] + x[2,4,0,6] <= 1
 move_2_6_40_33: x[2,3,3,7] + x[2,4,0,6] <= 1
 move_2_6_40_34: x[2,3,4,7] + x[2,4,0,6] <= 1
 move_2_6_40_43: x[2,4,0,6] + x[2,4,3,7] <= 1
 move_2_6_40_44: x[2,4,0,6] + x[2,4,4,7] <= 1
 move_2_6_41_00: x[2,0,0,7] + x[2,4,1,6] <= 1
 move_2_6_41_01: x[2,0,1,7] + x[2,4,1,6] <= 1
 move_2_6_41_02: x[2,0,2,7] + x[2,4,1,6] <= 1
 move_2_6_41_03: x[2,0,3,7] + x[2,4,1,6] <= 1
 move_2_6_41_04: x[2,0,4,7] + x[2,4,1,6] <= 1
 move_2_6_41_10: x[2,1,0,7] + x[2,4,1,6] <= 1
 move_2_6_41_11: x[2,1,1,7] + x[2,4,1,6] <= 1
 move_2_6_41_12: x[2,1,2,7] + x[2,4,1,6] <= 1
 move_2_6_41_13: x[2,1,3,7] + x[2,4,1,6] <= 1
 move_2_6_41_14: x[2,1,4,7] + x[2,4,1,6] <= 1
 move_2_6_41_20: x[2,2,0,7] + x[2,4,1,6] <= 1
 move_2_6_41_22: x[2,2,2,7] + x[2,4,1,6] <= 1
 move_2_6_41_23: x[2,2,3,7] + x[2,4,1,6] <= 1
 move_2_6_41_24: x[2,2,4,7] + x[2,4,1,6] <= 1
 move_2_6_41_33: x[2,3,3,7] + x[2,4,1,6] <= 1
 move_2_6_41_34: x[2,3,4,7] + x[2,4,1,6] <= 1
 move_2_6_41_44: x[2,4,1,6] + x[2,4,4,7] <= 1
 move_2_6_42_00: x[2,0,0,7] + x[2,4,2,6] <= 1
 move_2_6_42_01: x[2,0,1,7] + x[2,4,2,6] <= 1
 move_2_6_42_02: x[2,0,2,7] + x[2,4,2,6] <= 1
 move_2_6_42_03: x[2,0,3,7] + x[2,4,2,6] <= 1
 move_2_6_42_04: x[2,0,4,7] + x[2,4,2,6] <= 1
 move_2_6_42_10: x[2,1,0,7] + x[2,4,2,6] <= 1
 move_2_6_42_11: x[2,1,1,7] + x[2,4,2,6] <= 1
 move_2_6_42_12: x[2,1,2,7] + x[2,4,2,6] <= 1
 move_2_6_42_13: x[2,1,3,7] + x[2,4,2,6] <= 1
 move_2_6_42_14: x[2,1,4,7] + x[2,4,2,6] <= 1
 move_2_6_42_20: x[2,2,0,7] + x[2,4,2,6] <= 1
 move_2_6_42_21: x[2,2,1,7] + x[2,4,2,6] <= 1
 move_2_6_42_23: x[2,2,3,7] + x[2,4,2,6] <= 1
 move_2_6_42_24: x[2,2,4,7] + x[2,4,2,6] <= 1
 move_2_6_42_30: x[2,3,0,7] + x[2,4,2,6] <= 1
 move_2_6_42_34: x[2,3,4,7] + x[2,4,2,6] <= 1
 move_2_6_43_00: x[2,0,0,7] + x[2,4,3,6] <= 1
 move_2_6_43_01: x[2,0,1,7] + x[2,4,3,6] <= 1
 move_2_6_43_02: x[2,0,2,7] + x[2,4,3,6] <= 1
 move_2_6_43_03: x[2,0,3,7] + x[2,4,3,6] <= 1
 move_2_6_43_04: x[2,0,4,7] + x[2,4,3,6] <= 1
 move_2_6_43_10: x[2,1,0,7] + x[2,4,3,6] <= 1
 move_2_6_43_11: x[2,1,1,7] + x[2,4,3,6] <= 1
 move_2_6_43_12: x[2,1,2,7] + x[2,4,3,6] <= 1
 move_2_6_43_13: x[2,1,3,7] + x[2,4,3,6] <= 1
 move_2_6_43_14: x[2,1,4,7] + x[2,4,3,6] <= 1
 move_2_6_43_20: x[2,2,0,7] + x[2,4,3,6] <= 1
 move_2_6_43_21: x[2,2,1,7] + x[2,4,3,6] <= 1
 move_2_6_43_22: x[2,2,2,7] + x[2,4,3,6] <= 1
 move_2_6_43_24: x[2,2,4,7] + x[2,4,3,6] <= 1
 move_2_6_43_30: x[2,3,0,7] + x[2,4,3,6] <= 1
 move_2_6_43_31: x[2,3,1,7] + x[2,4,3,6] <= 1
 move_2_6_43_40: x[2,4,0,7] + x[2,4,3,6] <= 1
 move_2_6_44_00: x[2,0,0,7] + x[2,4,4,6] <= 1
 move_2_6_44_01: x[2,0,1,7] + x[2,4,4,6] <= 1
 move_2_6_44_02: x[2,0,2,7] + x[2,4,4,6] <= 1
 move_2_6_44_03: x[2,0,3,7] + x[2,4,4,6] <= 1
 move_2_6_44_04: x[2,0,4,7] + x[2,4,4,6] <= 1
 move_2_6_44_10: x[2,1,0,7] + x[2,4,4,6] <= 1
 move_2_6_44_11: x[2,1,1,7] + x[2,4,4,6] <= 1
 move_2_6_44_12: x[2,1,2,7] + x[2,4,4,6] <= 1
 move_2_6_44_13: x[2,1,3,7] + x[2,4,4,6] <= 1
 move_2_6_44_14: x[2,1,4,7] + x[2,4,4,6] <= 1
 move_2_6_44_20: x[2,2,0,7] + x[2,4,4,6] <= 1
 move_2_6_44_21: x[2,2,1,7] + x[2,4,4,6] <= 1
 move_2_6_44_22: x[2,2,2,7] + x[2,4,4,6] <= 1
 move_2_6_44_23: x[2,2,3,7] + x[2,4,4,6] <= 1
 move_2_6_44_30: x[2,3,0,7] + x[2,4,4,6] <= 1
 move_2_6_44_31: x[2,3,1,7] + x[2,4,4,6] <= 1
 move_2_6_44_32: x[2,3,2,7] + x[2,4,4,6] <= 1
 move_2_6_44_40: x[2,4,0,7] + x[2,4,4,6] <= 1
 move_2_6_44_41: x[2,4,1,7] + x[2,4,4,6] <= 1
 move_2_7_00_03: x[2,0,0,7] + x[2,0,3,8] <= 1
 move_2_7_00_04: x[2,0,0,7] + x[2,0,4,8] <= 1
 move_2_7_00_12: x[2,0,0,7] + x[2,1,2,8] <= 1
 move_2_7_00_13: x[2,0,0,7] + x[2,1,3,8] <= 1
 move_2_7_00_14: x[2,0,0,7] + x[2,1,4,8] <= 1
 move_2_7_00_21: x[2,0,0,7] + x[2,2,1,8] <= 1
 move_2_7_00_22: x[2,0,0,7] + x[2,2,2,8] <= 1
 move_2_7_00_23: x[2,0,0,7] + x[2,2,3,8] <= 1
 move_2_7_00_24: x[2,0,0,7] + x[2,2,4,8] <= 1
 move_2_7_00_30: x[2,0,0,7] + x[2,3,0,8] <= 1
 move_2_7_00_31: x[2,0,0,7] + x[2,3,1,8] <= 1
 move_2_7_00_32: x[2,0,0,7] + x[2,3,2,8] <= 1
 move_2_7_00_33: x[2,0,0,7] + x[2,3,3,8] <= 1
 move_2_7_00_34: x[2,0,0,7] + x[2,3,4,8] <= 1
 move_2_7_00_40: x[2,0,0,7] + x[2,4,0,8] <= 1
 move_2_7_00_41: x[2,0,0,7] + x[2,4,1,8] <= 1
 move_2_7_00_42: x[2,0,0,7] + x[2,4,2,8] <= 1
 move_2_7_00_43: x[2,0,0,7] + x[2,4,3,8] <= 1
 move_2_7_00_44: x[2,0,0,7] + x[2,4,4,8] <= 1
 move_2_7_01_04: x[2,0,1,7] + x[2,0,4,8] <= 1
 move_2_7_01_13: x[2,0,1,7] + x[2,1,3,8] <= 1
 move_2_7_01_14: x[2,0,1,7] + x[2,1,4,8] <= 1
 move_2_7_01_20: x[2,0,1,7] + x[2,2,0,8] <= 1
 move_2_7_01_22: x[2,0,1,7] + x[2,2,2,8] <= 1
 move_2_7_01_23: x[2,0,1,7] + x[2,2,3,8] <= 1
 move_2_7_01_24: x[2,0,1,7] + x[2,2,4,8] <= 1
 move_2_7_01_30: x[2,0,1,7] + x[2,3,0,8] <= 1
 move_2_7_01_31: x[2,0,1,7] + x[2,3,1,8] <= 1
 move_2_7_01_32: x[2,0,1,7] + x[2,3,2,8] <= 1
 move_2_7_01_33: x[2,0,1,7] + x[2,3,3,8] <= 1
 move_2_7_01_34: x[2,0,1,7] + x[2,3,4,8] <= 1
 move_2_7_01_40: x[2,0,1,7] + x[2,4,0,8] <= 1
 move_2_7_01_41: x[2,0,1,7] + x[2,4,1,8] <= 1
 move_2_7_01_42: x[2,0,1,7] + x[2,4,2,8] <= 1
 move_2_7_01_43: x[2,0,1,7] + x[2,4,3,8] <= 1
 move_2_7_01_44: x[2,0,1,7] + x[2,4,4,8] <= 1
 move_2_7_02_10: x[2,0,2,7] + x[2,1,0,8] <= 1
 move_2_7_02_14: x[2,0,2,7] + x[2,1,4,8] <= 1
 move_2_7_02_20: x[2,0,2,7] + x[2,2,0,8] <= 1
 move_2_7_02_21: x[2,0,2,7] + x[2,2,1,8] <= 1
 move_2_7_02_23: x[2,0,2,7] + x[2,2,3,8] <= 1
 move_2_7_02_24: x[2,0,2,7] + x[2,2,4,8] <= 1
 move_2_7_02_30: x[2,0,2,7] + x[2,3,0,8] <= 1
 move_2_7_02_31: x[2,0,2,7] + x[2,3,1,8] <= 1
 move_2_7_02_32: x[2,0,2,7] + x[2,3,2,8] <= 1
 move_2_7_02_33: x[2,0,2,7] + x[2,3,3,8] <= 1
 move_2_7_02_34: x[2,0,2,7] + x[2,3,4,8] <= 1
 move_2_7_02_40: x[2,0,2,7] + x[2,4,0,8] <= 1
 move_2_7_02_41: x[2,0,2,7] + x[2,4,1,8] <= 1
 move_2_7_02_42: x[2,0,2,7] + x[2,4,2,8] <= 1
 move_2_7_02_43: x[2,0,2,7] + x[2,4,3,8] <= 1
 move_2_7_02_44: x[2,0,2,7] + x[2,4,4,8] <= 1
 move_2_7_03_00: x[2,0,0,8] + x[2,0,3,7] <= 1
 move_2_7_03_10: x[2,0,3,7] + x[2,1,0,8] <= 1
 move_2_7_03_11: x[2,0,3,7] + x[2,1,1,8] <= 1
 move_2_7_03_20: x[2,0,3,7] + x[2,2,0,8] <= 1
 move_2_7_03_21: x[2,0,3,7] + x[2,2,1,8] <= 1
 move_2_7_03_22: x[2,0,3,7] + x[2,2,2,8] <= 1
 move_2_7_03_24: x[2,0,3,7] + x[2,2,4,8] <= 1
 move_2_7_03_30: x[2,0,3,7] + x[2,3,0,8] <= 1
 move_2_7_03_31: x[2,0,3,7] + x[2,3,1,8] <= 1
 move_2_7_03_32: x[2,0,3,7] + x[2,3,2,8] <= 1
 move_2_7_03_33: x[2,0,3,7] + x[2,3,3,8] <= 1
 move_2_7_03_34: x[2,0,3,7] + x[2,3,4,8] <= 1
 move_2_7_03_40: x[2,0,3,7] + x[2,4,0,8] <= 1
 move_2_7_03_41: x[2,0,3,7] + x[2,4,1,8] <= 1
 move_2_7_03_42: x[2,0,3,7] + x[2,4,2,8] <= 1
 move_2_7_03_43: x[2,0,3,7] + x[2,4,3,8] <= 1
 move_2_7_03_44: x[2,0,3,7] + x[2,4,4,8] <= 1
 move_2_7_04_00: x[2,0,0,8] + x[2,0,4,7] <= 1
 move_2_7_04_01: x[2,0,1,8] + x[2,0,4,7] <= 1
 move_2_7_04_10: x[2,0,4,7] + x[2,1,0,8] <= 1
 move_2_7_04_11: x[2,0,4,7] + x[2,1,1,8] <= 1
 move_2_7_04_12: x[2,0,4,7] + x[2,1,2,8] <= 1
 move_2_7_04_20: x[2,0,4,7] + x[2,2,0,8] <= 1
 move_2_7_04_21: x[2,0,4,7] + x[2,2,1,8] <= 1
 move_2_7_04_22: x[2,0,4,7] + x[2,2,2,8] <= 1
 move_2_7_04_23: x[2,0,4,7] + x[2,2,3,8] <= 1
 move_2_7_04_30: x[2,0,4,7] + x[2,3,0,8] <= 1
 move_2_7_04_31: x[2,0,4,7] + x[2,3,1,8] <= 1
 move_2_7_04_32: x[2,0,4,7] + x[2,3,2,8] <= 1
 move_2_7_04_33: x[2,0,4,7] + x[2,3,3,8] <= 1
 move_2_7_04_34: x[2,0,4,7] + x[2,3,4,8] <= 1
 move_2_7_04_40: x[2,0,4,7] + x[2,4,0,8] <= 1
 move_2_7_04_41: x[2,0,4,7] + x[2,4,1,8] <= 1
 move_2_7_04_42: x[2,0,4,7] + x[2,4,2,8] <= 1
 move_2_7_04_43: x[2,0,4,7] + x[2,4,3,8] <= 1
 move_2_7_04_44: x[2,0,4,7] + x[2,4,4,8] <= 1
 move_2_7_10_02: x[2,0,2,8] + x[2,1,0,7] <= 1
 move_2_7_10_03: x[2,0,3,8] + x[2,1,0,7] <= 1
 move_2_7_10_04: x[2,0,4,8] + x[2,1,0,7] <= 1
 move_2_7_10_13: x[2,1,0,7] + x[2,1,3,8] <= 1
 move_2_7_10_14: x[2,1,0,7] + x[2,1,4,8] <= 1
 move_2_7_10_22: x[2,1,0,7] + x[2,2,2,8] <= 1
 move_2_7_10_23: x[2,1,0,7] + x[2,2,3,8] <= 1
 move_2_7_10_24: x[2,1,0,7] + x[2,2,4,8] <= 1
 move_2_7_10_31: x[2,1,0,7] + x[2,3,1,8] <= 1
 move_2_7_10_32: x[2,1,0,7] + x[2,3,2,8] <= 1
 move_2_7_10_33: x[2,1,0,7] + x[2,3,3,8] <= 1
 move_2_7_10_34: x[2,1,0,7] + x[2,3,4,8] <= 1
 move_2_7_10_40: x[2,1,0,7] + x[2,4,0,8] <= 1
 move_2_7_10_41: x[2,1,0,7] + x[2,4,1,8] <= 1
 move_2_7_10_42: x[2,1,0,7] + x[2,4,2,8] <= 1
 move_2_7_10_43: x[2,1,0,7] + x[2,4,3,8] <= 1
 move_2_7_10_44: x[2,1,0,7] + x[2,4,4,8] <= 1
 move_2_7_11_03: x[2,0,3,8] + x[2,1,1,7] <= 1
 move_2_7_11_04: x[2,0,4,8] + x[2,1,1,7] <= 1
 move_2_7_11_14: x[2,1,1,7] + x[2,1,4,8] <= 1
 move_2_7_11_23: x[2,1,1,7] + x[2,2,3,8] <= 1
 move_2_7_11_24: x[2,1,1,7] + x[2,2,4,8] <= 1
 move_2_7_11_30: x[2,1,1,7] + x[2,3,0,8] <= 1
 move_2_7_11_32: x[2,1,1,7] + x[2,3,2,8] <= 1
 move_2_7_11_33: x[2,1,1,7] + x[2,3,3,8] <= 1
 move_2_7_11_34: x[2,1,1,7] + x[2,3,4,8] <= 1
 move_2_7_11_40: x[2,1,1,7] + x[2,4,0,8] <= 1
 move_2_7_11_41: x[2,1,1,7] + x[2,4,1,8] <= 1
 move_2_7_11_42: x[2,1,1,7] + x[2,4,2,8] <= 1
 move_2_7_11_43: x[2,1,1,7] + x[2,4,3,8] <= 1
 move_2_7_11_44: x[2,1,1,7] + x[2,4,4,8] <= 1
 move_2_7_12_00: x[2,0,0,8] + x[2,1,2,7] <= 1
 move_2_7_12_04: x[2,0,4,8] + x[2,1,2,7] <= 1
 move_2_7_12_20: x[2,1,2,7] + x[2,2,0,8] <= 1
 move_2_7_12_24: x[2,1,2,7] + x[2,2,4,8] <= 1
 move_2_7_12_30: x[2,1,2,7] + x[2,3,0,8] <= 1
 move_2_7_12_31: x[2,1,2,7] + x[2,3,1,8] <= 1
 move_2_7_12_33: x[2,1,2,7] + x[2,3,3,8] <= 1
 move_2_7_12_34: x[2,1,2,7] + x[2,3,4,8] <= 1
 move_2_7_12_40: x[2,1,2,7] + x[2,4,0,8] <= 1
 move_2_7_12_41: x[2,1,2,7] + x[2,4,1,8] <= 1
 move_2_7_12_42: x[2,1,2,7] + x[2,4,2,8] <= 1
 move_2_7_12_43: x[2,1,2,7] + x[2,4,3,8] <= 1
 move_2_7_12_44: x[2,1,2,7] + x[2,4,4,8] <= 1
 move_2_7_13_00: x[2,0,0,8] + x[2,1,3,7] <= 1
 move_2_7_13_01: x[2,0,1,8] + x[2,1,3,7] <= 1
 move_2_7_13_10: x[2,1,0,8] + x[2,1,3,7] <= 1
 move_2_7_13_20: x[2,1,3,7] + x[2,2,0,8] <= 1
 move_2_7_13_21: x[2,1,3,7] + x[2,2,1,8] <= 1
 move_2_7_13_30: x[2,1,3,7] + x[2,3,0,8] <= 1
 move_2_7_13_31: x[2,1,3,7] + x[2,3,1,8] <= 1
 move_2_7_13_32: x[2,1,3,7] + x[2,3,2,8] <= 1
 move_2_7_13_34: x[2,1,3,7] + x[2,3,4,8] <= 1
 move_2_7_13_40: x[2,1,3,7] + x[2,4,0,8] <= 1
 move_2_7_13_41: x[2,1,3,7] + x[2,4,1,8] <= 1
 move_2_7_13_42: x[2,1,3,7] + x[2,4,2,8] <= 1
 move_2_7_13_43: x[2,1,3,7] + x[2,4,3,8] <= 1
 move_2_7_13_44: x[2,1,3,7] + x[2,4,4,8] <= 1
 move_2_7_14_00: x[2,0,0,8] + x[2,1,4,7] <= 1
 move_2_7_14_01: x[2,0,1,8] + x[2,1,4,7] <= 1
 move_2_7_14_02: x[2,0,2,8] + x[2,1,4,7] <= 1
 move_2_7_14_10: x[2,1,0,8] + x[2,1,4,7] <= 1
 move_2_7_14_11: x[2,1,1,8] + x[2,1,4,7] <= 1
 move_2_7_14_20: x[2,1,4,7] + x[2,2,0,8] <= 1
 move_2_7_14_21: x[2,1,4,7] + x[2,2,1,8] <= 1
 move_2_7_14_22: x[2,1,4,7] + x[2,2,2,8] <= 1
 move_2_7_14_30: x[2,1,4,7] + x[2,3,0,8] <= 1
 move_2_7_14_31: x[2,1,4,7] + x[2,3,1,8] <= 1
 move_2_7_14_32: x[2,1,4,7] + x[2,3,2,8] <= 1
 move_2_7_14_33: x[2,1,4,7] + x[2,3,3,8] <= 1
 move_2_7_14_40: x[2,1,4,7] + x[2,4,0,8] <= 1
 move_2_7_14_41: x[2,1,4,7] + x[2,4,1,8] <= 1
 move_2_7_14_42: x[2,1,4,7] + x[2,4,2,8] <= 1
 move_2_7_14_43: x[2,1,4,7] + x[2,4,3,8] <= 1
 move_2_7_14_44: x[2,1,4,7] + x[2,4,4,8] <= 1
 move_2_7_20_01: x[2,0,1,8] + x[2,2,0,7] <= 1
 move_2_7_20_02: x[2,0,2,8] + x[2,2,0,7] <= 1
 move_2_7_20_03: x[2,0,3,8] + x[2,2,0,7] <= 1
 move_2_7_20_04: x[2,0,4,8] + x[2,2,0,7] <= 1
 move_2_7_20_12: x[2,1,2,8] + x[2,2,0,7] <= 1
 move_2_7_20_13: x[2,1,3,8] + x[2,2,0,7] <= 1
 move_2_7_20_14: x[2,1,4,8] + x[2,2,0,7] <= 1
 move_2_7_20_23: x[2,2,0,7] + x[2,2,3,8] <= 1
 move_2_7_20_24: x[2,2,0,7] + x[2,2,4,8] <= 1
 move_2_7_20_32: x[2,2,0,7] + x[2,3,2,8] <= 1
 move_2_7_20_33: x[2,2,0,7] + x[2,3,3,8] <= 1
 move_2_7_20_34: x[2,2,0,7] + x[2,3,4,8] <= 1
 move_2_7_20_41: x[2,2,0,7] + x[2,4,1,8] <= 1
 move_2_7_20_42: x[2,2,0,7] + x[2,4,2,8] <= 1
 move_2_7_20_43: x[2,2,0,7] + x[2,4,3,8] <= 1
 move_2_7_20_44: x[2,2,0,7] + x[2,4,4,8] <= 1
 move_2_7_21_00: x[2,0,0,8] + x[2,2,1,7] <= 1
 move_2_7_21_02: x[2,0,2,8] + x[2,2,1,7] <= 1
 move_2_7_21_03: x[2,0,3,8] + x[2,2,1,7] <= 1
 move_2_7_21_04: x[2,0,4,8] + x[2,2,1,7] <= 1
 move_2_7_21_13: x[2,1,3,8] + x[2,2,1,7] <= 1
 move_2_7_21_14: x[2,1,4,8] + x[2,2,1,7] <= 1
 move_2_7_21_24: x[2,2,1,7] + x[2,2,4,8] <= 1
 move_2_7_21_33: x[2,2,1,7] + x[2,3,3,8] <= 1
 move_2_7_21_34: x[2,2,1,7] + x[2,3,4,8] <= 1
 move_2_7_21_40: x[2,2,1,7] + x[2,4,0,8] <= 1
 move_2_7_21_42: x[2,2,1,7] + x[2,4,2,8] <= 1
 move_2_7_21_43: x[2,2,1,7] + x[2,4,3,8] <= 1
 move_2_7_21_44: x[2,2,1,7] + x[2,4,4,8] <= 1
 move_2_7_22_00: x[2,0,0,8] + x[2,2,2,7] <= 1
 move_2_7_22_01: x[2,0,1,8] + x[2,2,2,7] <= 1
 move_2_7_22_03: x[2,0,3,8] + x[2,2,2,7] <= 1
 move_2_7_22_04: x[2,0,4,8] + x[2,2,2,7] <= 1
 move_2_7_22_10: x[2,1,0,8] + x[2,2,2,7] <= 1
 move_2_7_22_14: x[2,1,4,8] + x[2,2,2,7] <= 1
 move_2_7_22_30: x[2,2,2,7] + x[2,3,0,8] <= 1
 move_2_7_22_34: x[2,2,2,7] + x[2,3,4,8] <= 1
 move_2_7_22_40: x[2,2,2,7] + x[2,4,0,8] <= 1
 move_2_7_22_41: x[2,2,2,7] + x[2,4,1,8] <= 1
 move_2_7_22_43: x[2,2,2,7] + x[2,4,3,8] <= 1
 move_2_7_22_44: x[2,2,2,7] + x[2,4,4,8] <= 1
 move_2_7_23_00: x[2,0,0,8] + x[2,2,3,7] <= 1
 move_2_7_23_01: x[2,0,1,8] + x[2,2,3,7] <= 1
 move_2_7_23_02: x[2,0,2,8] + x[2,2,3,7] <= 1
 move_2_7_23_04: x[2,0,4,8] + x[2,2,3,7] <= 1
 move_2_7_23_10: x[2,1,0,8] + x[2,2,3,7] <= 1
 move_2_7_23_11: x[2,1,1,8] + x[2,2,3,7] <= 1
 move_2_7_23_20: x[2,2,0,8] + x[2,2,3,7] <= 1
 move_2_7_23_30: x[2,2,3,7] + x[2,3,0,8] <= 1
 move_2_7_23_31: x[2,2,3,7] + x[2,3,1,8] <= 1
 move_2_7_23_40: x[2,2,3,7] + x[2,4,0,8] <= 1
 move_2_7_23_41: x[2,2,3,7] + x[2,4,1,8] <= 1
 move_2_7_23_42: x[2,2,3,7] + x[2,4,2,8] <= 1
 move_2_7_23_44: x[2,2,3,7] + x[2,4,4,8] <= 1
 move_2_7_24_00: x[2,0,0,8] + x[2,2,4,7] <= 1
 move_2_7_24_01: x[2,0,1,8] + x[2,2,4,7] <= 1
 move_2_7_24_02: x[2,0,2,8] + x[2,2,4,7] <= 1
 move_2_7_24_03: x[2,0,3,8] + x[2,2,4,7] <= 1
 move_2_7_24_10: x[2,1,0,8] + x[2,2,4,7] <= 1
 move_2_7_24_11: x[2,1,1,8] + x[2,2,4,7] <= 1
 move_2_7_24_12: x[2,1,2,8] + x[2,2,4,7] <= 1
 move_2_7_24_20: x[2,2,0,8] + x[2,2,4,7] <= 1
 move_2_7_24_21: x[2,2,1,8] + x[2,2,4,7] <= 1
 move_2_7_24_30: x[2,2,4,7] + x[2,3,0,8] <= 1
 move_2_7_24_31: x[2,2,4,7] + x[2,3,1,8] <= 1
 move_2_7_24_32: x[2,2,4,7] + x[2,3,2,8] <= 1
 move_2_7_24_40: x[2,2,4,7] + x[2,4,0,8] <= 1
 move_2_7_24_41: x[2,2,4,7] + x[2,4,1,8] <= 1
 move_2_7_24_42: x[2,2,4,7] + x[2,4,2,8] <= 1
 move_2_7_24_43: x[2,2,4,7] + x[2,4,3,8] <= 1
 move_2_7_30_00: x[2,0,0,8] + x[2,3,0,7] <= 1
 move_2_7_30_01: x[2,0,1,8] + x[2,3,0,7] <= 1
 move_2_7_30_02: x[2,0,2,8] + x[2,3,0,7] <= 1
 move_2_7_30_03: x[2,0,3,8] + x[2,3,0,7] <= 1
 move_2_7_30_04: x[2,0,4,8] + x[2,3,0,7] <= 1
 move_2_7_30_11: x[2,1,1,8] + x[2,3,0,7] <= 1
 move_2_7_30_12: x[2,1,2,8] + x[2,3,0,7] <= 1
 move_2_7_30_13: x[2,1,3,8] + x[2,3,0,7] <= 1
 move_2_7_30_14: x[2,1,4,8] + x[2,3,0,7] <= 1
 move_2_7_30_22: x[2,2,2,8] + x[2,3,0,7] <= 1
 move_2_7_30_23: x[2,2,3,8] + x[2,3,0,7] <= 1
 move_2_7_30_24: x[2,2,4,8] + x[2,3,0,7] <= 1
 move_2_7_30_33: x[2,3,0,7] + x[2,3,3,8] <= 1
 move_2_7_30_34: x[2,3,0,7] + x[2,3,4,8] <= 1
 move_2_7_30_42: x[2,3,0,7] + x[2,4,2,8] <= 1
 move_2_7_30_43: x[2,3,0,7] + x[2,4,3,8] <= 1
 move_2_7_30_44: x[2,3,0,7] + x[2,4,4,8] <= 1
 move_2_7_31_00: x[2,0,0,8] + x[2,3,1,7] <= 1
 move_2_7_31_01: x[2,0,1,8] + x[2,3,1,7] <= 1
 move_2_7_31_02: x[2,0,2,8] + x[2,3,1,7] <= 1
 move_2_7_31_03: x[2,0,3,8] + x[2,3,1,7] <= 1
 move_2_7_31_04: x[2,0,4,8] + x[2,3,1,7] <= 1
 move_2_7_31_10: x[2,1,0,8] + x[2,3,1,7] <= 1
 move_2_7_31_12: x[2,1,2,8] + x[2,3,1,7] <= 1
 move_2_7_31_13: x[2,1,3,8] + x[2,3,1,7] <= 1
 move_2_7_31_14: x[2,1,4,8] + x[2,3,1,7] <= 1
 move_2_7_31_23: x[2,2,3,8] + x[2,3,1,7] <= 1
 move_2_7_31_24: x[2,2,4,8] + x[2,3,1,7] <= 1
 move_2_7_31_34: x[2,3,1,7] + x[2,3,4,8] <= 1
 move_2_7_31_43: x[2,3,1,7] + x[2,4,3,8] <= 1
 move_2_7_31_44: x[2,3,1,7] + x[2,4,4,8] <= 1
 move_2_7_32_00: x[2,0,0,8] + x[2,3,2,7] <= 1
 move_2_7_32_01: x[2,0,1,8] + x[2,3,2,7] <= 1
 move_2_7_32_02: x[2,0,2,8] + x[2,3,2,7] <= 1
 move_2_7_32_03: x[2,0,3,8] + x[2,3,2,7] <= 1
 move_2_7_32_04: x[2,0,4,8] + x[2,3,2,7] <= 1
 move_2_7_32_10: x[2,1,0,8] + x[2,3,2,7] <= 1
 move_2_7_32_11: x[2,1,1,8] + x[2,3,2,7] <= 1
 move_2_7_32_13: x[2,1,3,8] + x[2,3,2,7] <= 1
 move_2_7_32_14: x[2,1,4,8] + x[2,3,2,7] <= 1
 move_2_7_32_20: x[2,2,0,8] + x[2,3,2,7] <= 1
 move_2_7_32_24: x[2,2,4,8] + x[2,3,2,7] <= 1
 move_2_7_32_40: x[2,3,2,7] + x[2,4,0,8] <= 1
 move_2_7_32_44: x[2,3,2,7] + x[2,4,4,8] <= 1
 move_2_7_33_00: x[2,0,0,8] + x[2,3,3,7] <= 1
 move_2_7_33_01: x[2,0,1,8] + x[2,3,3,7] <= 1
 move_2_7_33_02: x[2,0,2,8] + x[2,3,3,7] <= 1
 move_2_7_33_03: x[2,0,3,8] + x[2,3,3,7] <= 1
 move_2_7_33_04: x[2,0,4,8] + x[2,3,3,7] <= 1
 move_2_7_33_10: x[2,1,0,8] + x[2,3,3,7] <= 1
 move_2_7_33_11: x[2,1,1,8] + x[2,3,3,7] <= 1
 move_2_7_33_12: x[2,1,2,8] + x[2,3,3,7] <= 1
 move_2_7_33_14: x[2,1,4,8] + x[2,3,3,7] <= 1
 move_2_7_33_20: x[2,2,0,8] + x[2,3,3,7] <= 1
 move_2_7_33_21: x[2,2,1,8] + x[2,3,3,7] <= 1
 move_2_7_33_30: x[2,3,0,8] + x[2,3,3,7] <= 1
 move_2_7_33_40: x[2,3,3,7] + x[2,4,0,8] <= 1
 move_2_7_33_41: x[2,3,3,7] + x[2,4,1,8] <= 1
 move_2_7_34_00: x[2,0,0,8] + x[2,3,4,7] <= 1
 move_2_7_34_01: x[2,0,1,8] + x[2,3,4,7] <= 1
 move_2_7_34_02: x[2,0,2,8] + x[2,3,4,7] <= 1
 move_2_7_34_03: x[2,0,3,8] + x[2,3,4,7] <= 1
 move_2_7_34_04: x[2,0,4,8] + x[2,3,4,7] <= 1
 move_2_7_34_10: x[2,1,0,8] + x[2,3,4,7] <= 1
 move_2_7_34_11: x[2,1,1,8] + x[2,3,4,7] <= 1
 move_2_7_34_12: x[2,1,2,8] + x[2,3,4,7] <= 1
 move_2_7_34_13: x[2,1,3,8] + x[2,3,4,7] <= 1
 move_2_7_34_20: x[2,2,0,8] + x[2,3,4,7] <= 1
 move_2_7_34_21: x[2,2,1,8] + x[2,3,4,7] <= 1
 move_2_7_34_22: x[2,2,2,8] + x[2,3,4,7] <= 1
 move_2_7_34_30: x[2,3,0,8] + x[2,3,4,7] <= 1
 move_2_7_34_31: x[2,3,1,8] + x[2,3,4,7] <= 1
 move_2_7_34_40: x[2,3,4,7] + x[2,4,0,8] <= 1
 move_2_7_34_41: x[2,3,4,7] + x[2,4,1,8] <= 1
 move_2_7_34_42: x[2,3,4,7] + x[2,4,2,8] <= 1
 move_2_7_40_00: x[2,0,0,8] + x[2,4,0,7] <= 1
 move_2_7_40_01: x[2,0,1,8] + x[2,4,0,7] <= 1
 move_2_7_40_02: x[2,0,2,8] + x[2,4,0,7] <= 1
 move_2_7_40_03: x[2,0,3,8] + x[2,4,0,7] <= 1
 move_2_7_40_04: x[2,0,4,8] + x[2,4,0,7] <= 1
 move_2_7_40_10: x[2,1,0,8] + x[2,4,0,7] <= 1
 move_2_7_40_11: x[2,1,1,8] + x[2,4,0,7] <= 1
 move_2_7_40_12: x[2,1,2,8] + x[2,4,0,7] <= 1
 move_2_7_40_13: x[2,1,3,8] + x[2,4,0,7] <= 1
 move_2_7_40_14: x[2,1,4,8] + x[2,4,0,7] <= 1
 move_2_7_40_21: x[2,2,1,8] + x[2,4,0,7] <= 1
 move_2_7_40_22: x[2,2,2,8] + x[2,4,0,7] <= 1
 move_2_7_40_23: x[2,2,3,8] + x[2,4,0,7] <= 1
 move_2_7_40_24: x[2,2,4,8] + x[2,4,0,7] <= 1
 move_2_7_40_32: x[2,3,2,8] + x[2,4,0,7] <= 1
 move_2_7_40_33: x[2,3,3,8] + x[2,4,0,7] <= 1
 move_2_7_40_34: x[2,3,4,8] + x[2,4,0,7] <= 1
 move_2_7_40_43: x[2,4,0,7] + x[2,4,3,8] <= 1
 move_2_7_40_44: x[2,4,0,7] + x[2,4,4,8] <= 1
 move_2_7_41_00: x[2,0,0,8] + x[2,4,1,7] <= 1
 move_2_7_41_01: x[2,0,1,8] + x[2,4,1,7] <= 1
 move_2_7_41_02: x[2,0,2,8] + x[2,4,1,7] <= 1
 move_2_7_41_03: x[2,0,3,8] + x[2,4,1,7] <= 1
 move_2_7_41_04: x[2,0,4,8] + x[2,4,1,7] <= 1
 move_2_7_41_10: x[2,1,0,8] + x[2,4,1,7] <= 1
 move_2_7_41_11: x[2,1,1,8] + x[2,4,1,7] <= 1
 move_2_7_41_12: x[2,1,2,8] + x[2,4,1,7] <= 1
 move_2_7_41_13: x[2,1,3,8] + x[2,4,1,7] <= 1
 move_2_7_41_14: x[2,1,4,8] + x[2,4,1,7] <= 1
 move_2_7_41_20: x[2,2,0,8] + x[2,4,1,7] <= 1
 move_2_7_41_22: x[2,2,2,8] + x[2,4,1,7] <= 1
 move_2_7_41_23: x[2,2,3,8] + x[2,4,1,7] <= 1
 move_2_7_41_24: x[2,2,4,8] + x[2,4,1,7] <= 1
 move_2_7_41_33: x[2,3,3,8] + x[2,4,1,7] <= 1
 move_2_7_41_34: x[2,3,4,8] + x[2,4,1,7] <= 1
 move_2_7_41_44: x[2,4,1,7] + x[2,4,4,8] <= 1
 move_2_7_42_00: x[2,0,0,8] + x[2,4,2,7] <= 1
 move_2_7_42_01: x[2,0,1,8] + x[2,4,2,7] <= 1
 move_2_7_42_02: x[2,0,2,8] + x[2,4,2,7] <= 1
 move_2_7_42_03: x[2,0,3,8] + x[2,4,2,7] <= 1
 move_2_7_42_04: x[2,0,4,8] + x[2,4,2,7] <= 1
 move_2_7_42_10: x[2,1,0,8] + x[2,4,2,7] <= 1
 move_2_7_42_11: x[2,1,1,8] + x[2,4,2,7] <= 1
 move_2_7_42_12: x[2,1,2,8] + x[2,4,2,7] <= 1
 move_2_7_42_13: x[2,1,3,8] + x[2,4,2,7] <= 1
 move_2_7_42_14: x[2,1,4,8] + x[2,4,2,7] <= 1
 move_2_7_42_20: x[2,2,0,8] + x[2,4,2,7] <= 1
 move_2_7_42_21: x[2,2,1,8] + x[2,4,2,7] <= 1
 move_2_7_42_23: x[2,2,3,8] + x[2,4,2,7] <= 1
 move_2_7_42_24: x[2,2,4,8] + x[2,4,2,7] <= 1
 move_2_7_42_30: x[2,3,0,8] + x[2,4,2,7] <= 1
 move_2_7_42_34: x[2,3,4,8] + x[2,4,2,7] <= 1
 move_2_7_43_00: x[2,0,0,8] + x[2,4,3,7] <= 1
 move_2_7_43_01: x[2,0,1,8] + x[2,4,3,7] <= 1
 move_2_7_43_02: x[2,0,2,8] + x[2,4,3,7] <= 1
 move_2_7_43_03: x[2,0,3,8] + x[2,4,3,7] <= 1
 move_2_7_43_04: x[2,0,4,8] + x[2,4,3,7] <= 1
 move_2_7_43_10: x[2,1,0,8] + x[2,4,3,7] <= 1
 move_2_7_43_11: x[2,1,1,8] + x[2,4,3,7] <= 1
 move_2_7_43_12: x[2,1,2,8] + x[2,4,3,7] <= 1
 move_2_7_43_13: x[2,1,3,8] + x[2,4,3,7] <= 1
 move_2_7_43_14: x[2,1,4,8] + x[2,4,3,7] <= 1
 move_2_7_43_20: x[2,2,0,8] + x[2,4,3,7] <= 1
 move_2_7_43_21: x[2,2,1,8] + x[2,4,3,7] <= 1
 move_2_7_43_22: x[2,2,2,8] + x[2,4,3,7] <= 1
 move_2_7_43_24: x[2,2,4,8] + x[2,4,3,7] <= 1
 move_2_7_43_30: x[2,3,0,8] + x[2,4,3,7] <= 1
 move_2_7_43_31: x[2,3,1,8] + x[2,4,3,7] <= 1
 move_2_7_43_40: x[2,4,0,8] + x[2,4,3,7] <= 1
 move_2_7_44_00: x[2,0,0,8] + x[2,4,4,7] <= 1
 move_2_7_44_01: x[2,0,1,8] + x[2,4,4,7] <= 1
 move_2_7_44_02: x[2,0,2,8] + x[2,4,4,7] <= 1
 move_2_7_44_03: x[2,0,3,8] + x[2,4,4,7] <= 1
 move_2_7_44_04: x[2,0,4,8] + x[2,4,4,7] <= 1
 move_2_7_44_10: x[2,1,0,8] + x[2,4,4,7] <= 1
 move_2_7_44_11: x[2,1,1,8] + x[2,4,4,7] <= 1
 move_2_7_44_12: x[2,1,2,8] + x[2,4,4,7] <= 1
 move_2_7_44_13: x[2,1,3,8] + x[2,4,4,7] <= 1
 move_2_7_44_14: x[2,1,4,8] + x[2,4,4,7] <= 1
 move_2_7_44_20: x[2,2,0,8] + x[2,4,4,7] <= 1
 move_2_7_44_21: x[2,2,1,8] + x[2,4,4,7] <= 1
 move_2_7_44_22: x[2,2,2,8] + x[2,4,4,7] <= 1
 move_2_7_44_23: x[2,2,3,8] + x[2,4,4,7] <= 1
 move_2_7_44_30: x[2,3,0,8] + x[2,4,4,7] <= 1
 move_2_7_44_31: x[2,3,1,8] + x[2,4,4,7] <= 1
 move_2_7_44_32: x[2,3,2,8] + x[2,4,4,7] <= 1
 move_2_7_44_40: x[2,4,0,8] + x[2,4,4,7] <= 1
 move_2_7_44_41: x[2,4,1,8] + x[2,4,4,7] <= 1
 move_2_8_00_03: x[2,0,0,8] + x[2,0,3,9] <= 1
 move_2_8_00_04: x[2,0,0,8] + x[2,0,4,9] <= 1
 move_2_8_00_12: x[2,0,0,8] + x[2,1,2,9] <= 1
 move_2_8_00_13: x[2,0,0,8] + x[2,1,3,9] <= 1
 move_2_8_00_14: x[2,0,0,8] + x[2,1,4,9] <= 1
 move_2_8_00_21: x[2,0,0,8] + x[2,2,1,9] <= 1
 move_2_8_00_22: x[2,0,0,8] + x[2,2,2,9] <= 1
 move_2_8_00_23: x[2,0,0,8] + x[2,2,3,9] <= 1
 move_2_8_00_24: x[2,0,0,8] + x[2,2,4,9] <= 1
 move_2_8_00_30: x[2,0,0,8] + x[2,3,0,9] <= 1
 move_2_8_00_31: x[2,0,0,8] + x[2,3,1,9] <= 1
 move_2_8_00_32: x[2,0,0,8] + x[2,3,2,9] <= 1
 move_2_8_00_33: x[2,0,0,8] + x[2,3,3,9] <= 1
 move_2_8_00_34: x[2,0,0,8] + x[2,3,4,9] <= 1
 move_2_8_00_40: x[2,0,0,8] + x[2,4,0,9] <= 1
 move_2_8_00_41: x[2,0,0,8] + x[2,4,1,9] <= 1
 move_2_8_00_42: x[2,0,0,8] + x[2,4,2,9] <= 1
 move_2_8_00_43: x[2,0,0,8] + x[2,4,3,9] <= 1
 move_2_8_00_44: x[2,0,0,8] + x[2,4,4,9] <= 1
 move_2_8_01_04: x[2,0,1,8] + x[2,0,4,9] <= 1
 move_2_8_01_13: x[2,0,1,8] + x[2,1,3,9] <= 1
 move_2_8_01_14: x[2,0,1,8] + x[2,1,4,9] <= 1
 move_2_8_01_20: x[2,0,1,8] + x[2,2,0,9] <= 1
 move_2_8_01_22: x[2,0,1,8] + x[2,2,2,9] <= 1
 move_2_8_01_23: x[2,0,1,8] + x[2,2,3,9] <= 1
 move_2_8_01_24: x[2,0,1,8] + x[2,2,4,9] <= 1
 move_2_8_01_30: x[2,0,1,8] + x[2,3,0,9] <= 1
 move_2_8_01_31: x[2,0,1,8] + x[2,3,1,9] <= 1
 move_2_8_01_32: x[2,0,1,8] + x[2,3,2,9] <= 1
 move_2_8_01_33: x[2,0,1,8] + x[2,3,3,9] <= 1
 move_2_8_01_34: x[2,0,1,8] + x[2,3,4,9] <= 1
 move_2_8_01_40: x[2,0,1,8] + x[2,4,0,9] <= 1
 move_2_8_01_41: x[2,0,1,8] + x[2,4,1,9] <= 1
 move_2_8_01_42: x[2,0,1,8] + x[2,4,2,9] <= 1
 move_2_8_01_43: x[2,0,1,8] + x[2,4,3,9] <= 1
 move_2_8_01_44: x[2,0,1,8] + x[2,4,4,9] <= 1
 move_2_8_02_10: x[2,0,2,8] + x[2,1,0,9] <= 1
 move_2_8_02_14: x[2,0,2,8] + x[2,1,4,9] <= 1
 move_2_8_02_20: x[2,0,2,8] + x[2,2,0,9] <= 1
 move_2_8_02_21: x[2,0,2,8] + x[2,2,1,9] <= 1
 move_2_8_02_23: x[2,0,2,8] + x[2,2,3,9] <= 1
 move_2_8_02_24: x[2,0,2,8] + x[2,2,4,9] <= 1
 move_2_8_02_30: x[2,0,2,8] + x[2,3,0,9] <= 1
 move_2_8_02_31: x[2,0,2,8] + x[2,3,1,9] <= 1
 move_2_8_02_32: x[2,0,2,8] + x[2,3,2,9] <= 1
 move_2_8_02_33: x[2,0,2,8] + x[2,3,3,9] <= 1
 move_2_8_02_34: x[2,0,2,8] + x[2,3,4,9] <= 1
 move_2_8_02_40: x[2,0,2,8] + x[2,4,0,9] <= 1
 move_2_8_02_41: x[2,0,2,8] + x[2,4,1,9] <= 1
 move_2_8_02_42: x[2,0,2,8] + x[2,4,2,9] <= 1
 move_2_8_02_43: x[2,0,2,8] + x[2,4,3,9] <= 1
 move_2_8_02_44: x[2,0,2,8] + x[2,4,4,9] <= 1
 move_2_8_03_00: x[2,0,0,9] + x[2,0,3,8] <= 1
 move_2_8_03_10: x[2,0,3,8] + x[2,1,0,9] <= 1
 move_2_8_03_11: x[2,0,3,8] + x[2,1,1,9] <= 1
 move_2_8_03_20: x[2,0,3,8] + x[2,2,0,9] <= 1
 move_2_8_03_21: x[2,0,3,8] + x[2,2,1,9] <= 1
 move_2_8_03_22: x[2,0,3,8] + x[2,2,2,9] <= 1
 move_2_8_03_24: x[2,0,3,8] + x[2,2,4,9] <= 1
 move_2_8_03_30: x[2,0,3,8] + x[2,3,0,9] <= 1
 move_2_8_03_31: x[2,0,3,8] + x[2,3,1,9] <= 1
 move_2_8_03_32: x[2,0,3,8] + x[2,3,2,9] <= 1
 move_2_8_03_33: x[2,0,3,8] + x[2,3,3,9] <= 1
 move_2_8_03_34: x[2,0,3,8] + x[2,3,4,9] <= 1
 move_2_8_03_40: x[2,0,3,8] + x[2,4,0,9] <= 1
 move_2_8_03_41: x[2,0,3,8] + x[2,4,1,9] <= 1
 move_2_8_03_42: x[2,0,3,8] + x[2,4,2,9] <= 1
 move_2_8_03_43: x[2,0,3,8] + x[2,4,3,9] <= 1
 move_2_8_03_44: x[2,0,3,8] + x[2,4,4,9] <= 1
 move_2_8_04_00: x[2,0,0,9] + x[2,0,4,8] <= 1
 move_2_8_04_01: x[2,0,1,9] + x[2,0,4,8] <= 1
 move_2_8_04_10: x[2,0,4,8] + x[2,1,0,9] <= 1
 move_2_8_04_11: x[2,0,4,8] + x[2,1,1,9] <= 1
 move_2_8_04_12: x[2,0,4,8] + x[2,1,2,9] <= 1
 move_2_8_04_20: x[2,0,4,8] + x[2,2,0,9] <= 1
 move_2_8_04_21: x[2,0,4,8] + x[2,2,1,9] <= 1
 move_2_8_04_22: x[2,0,4,8] + x[2,2,2,9] <= 1
 move_2_8_04_23: x[2,0,4,8] + x[2,2,3,9] <= 1
 move_2_8_04_30: x[2,0,4,8] + x[2,3,0,9] <= 1
 move_2_8_04_31: x[2,0,4,8] + x[2,3,1,9] <= 1
 move_2_8_04_32: x[2,0,4,8] + x[2,3,2,9] <= 1
 move_2_8_04_33: x[2,0,4,8] + x[2,3,3,9] <= 1
 move_2_8_04_34: x[2,0,4,8] + x[2,3,4,9] <= 1
 move_2_8_04_40: x[2,0,4,8] + x[2,4,0,9] <= 1
 move_2_8_04_41: x[2,0,4,8] + x[2,4,1,9] <= 1
 move_2_8_04_42: x[2,0,4,8] + x[2,4,2,9] <= 1
 move_2_8_04_43: x[2,0,4,8] + x[2,4,3,9] <= 1
 move_2_8_04_44: x[2,0,4,8] + x[2,4,4,9] <= 1
 move_2_8_10_02: x[2,0,2,9] + x[2,1,0,8] <= 1
 move_2_8_10_03: x[2,0,3,9] + x[2,1,0,8] <= 1
 move_2_8_10_04: x[2,0,4,9] + x[2,1,0,8] <= 1
 move_2_8_10_13: x[2,1,0,8] + x[2,1,3,9] <= 1
 move_2_8_10_14: x[2,1,0,8] + x[2,1,4,9] <= 1
 move_2_8_10_22: x[2,1,0,8] + x[2,2,2,9] <= 1
 move_2_8_10_23: x[2,1,0,8] + x[2,2,3,9] <= 1
 move_2_8_10_24: x[2,1,0,8] + x[2,2,4,9] <= 1
 move_2_8_10_31: x[2,1,0,8] + x[2,3,1,9] <= 1
 move_2_8_10_32: x[2,1,0,8] + x[2,3,2,9] <= 1
 move_2_8_10_33: x[2,1,0,8] + x[2,3,3,9] <= 1
 move_2_8_10_34: x[2,1,0,8] + x[2,3,4,9] <= 1
 move_2_8_10_40: x[2,1,0,8] + x[2,4,0,9] <= 1
 move_2_8_10_41: x[2,1,0,8] + x[2,4,1,9] <= 1
 move_2_8_10_42: x[2,1,0,8] + x[2,4,2,9] <= 1
 move_2_8_10_43: x[2,1,0,8] + x[2,4,3,9] <= 1
 move_2_8_10_44: x[2,1,0,8] + x[2,4,4,9] <= 1
 move_2_8_11_03: x[2,0,3,9] + x[2,1,1,8] <= 1
 move_2_8_11_04: x[2,0,4,9] + x[2,1,1,8] <= 1
 move_2_8_11_14: x[2,1,1,8] + x[2,1,4,9] <= 1
 move_2_8_11_23: x[2,1,1,8] + x[2,2,3,9] <= 1
 move_2_8_11_24: x[2,1,1,8] + x[2,2,4,9] <= 1
 move_2_8_11_30: x[2,1,1,8] + x[2,3,0,9] <= 1
 move_2_8_11_32: x[2,1,1,8] + x[2,3,2,9] <= 1
 move_2_8_11_33: x[2,1,1,8] + x[2,3,3,9] <= 1
 move_2_8_11_34: x[2,1,1,8] + x[2,3,4,9] <= 1
 move_2_8_11_40: x[2,1,1,8] + x[2,4,0,9] <= 1
 move_2_8_11_41: x[2,1,1,8] + x[2,4,1,9] <= 1
 move_2_8_11_42: x[2,1,1,8] + x[2,4,2,9] <= 1
 move_2_8_11_43: x[2,1,1,8] + x[2,4,3,9] <= 1
 move_2_8_11_44: x[2,1,1,8] + x[2,4,4,9] <= 1
 move_2_8_12_00: x[2,0,0,9] + x[2,1,2,8] <= 1
 move_2_8_12_04: x[2,0,4,9] + x[2,1,2,8] <= 1
 move_2_8_12_20: x[2,1,2,8] + x[2,2,0,9] <= 1
 move_2_8_12_24: x[2,1,2,8] + x[2,2,4,9] <= 1
 move_2_8_12_30: x[2,1,2,8] + x[2,3,0,9] <= 1
 move_2_8_12_31: x[2,1,2,8] + x[2,3,1,9] <= 1
 move_2_8_12_33: x[2,1,2,8] + x[2,3,3,9] <= 1
 move_2_8_12_34: x[2,1,2,8] + x[2,3,4,9] <= 1
 move_2_8_12_40: x[2,1,2,8] + x[2,4,0,9] <= 1
 move_2_8_12_41: x[2,1,2,8] + x[2,4,1,9] <= 1
 move_2_8_12_42: x[2,1,2,8] + x[2,4,2,9] <= 1
 move_2_8_12_43: x[2,1,2,8] + x[2,4,3,9] <= 1
 move_2_8_12_44: x[2,1,2,8] + x[2,4,4,9] <= 1
 move_2_8_13_00: x[2,0,0,9] + x[2,1,3,8] <= 1
 move_2_8_13_01: x[2,0,1,9] + x[2,1,3,8] <= 1
 move_2_8_13_10: x[2,1,0,9] + x[2,1,3,8] <= 1
 move_2_8_13_20: x[2,1,3,8] + x[2,2,0,9] <= 1
 move_2_8_13_21: x[2,1,3,8] + x[2,2,1,9] <= 1
 move_2_8_13_30: x[2,1,3,8] + x[2,3,0,9] <= 1
 move_2_8_13_31: x[2,1,3,8] + x[2,3,1,9] <= 1
 move_2_8_13_32: x[2,1,3,8] + x[2,3,2,9] <= 1
 move_2_8_13_34: x[2,1,3,8] + x[2,3,4,9] <= 1
 move_2_8_13_40: x[2,1,3,8] + x[2,4,0,9] <= 1
 move_2_8_13_41: x[2,1,3,8] + x[2,4,1,9] <= 1
 move_2_8_13_42: x[2,1,3,8] + x[2,4,2,9] <= 1
 move_2_8_13_43: x[2,1,3,8] + x[2,4,3,9] <= 1
 move_2_8_13_44: x[2,1,3,8] + x[2,4,4,9] <= 1
 move_2_8_14_00: x[2,0,0,9] + x[2,1,4,8] <= 1
 move_2_8_14_01: x[2,0,1,9] + x[2,1,4,8] <= 1
 move_2_8_14_02: x[2,0,2,9] + x[2,1,4,8] <= 1
 move_2_8_14_10: x[2,1,0,9] + x[2,1,4,8] <= 1
 move_2_8_14_11: x[2,1,1,9] + x[2,1,4,8] <= 1
 move_2_8_14_20: x[2,1,4,8] + x[2,2,0,9] <= 1
 move_2_8_14_21: x[2,1,4,8] + x[2,2,1,9] <= 1
 move_2_8_14_22: x[2,1,4,8] + x[2,2,2,9] <= 1
 move_2_8_14_30: x[2,1,4,8] + x[2,3,0,9] <= 1
 move_2_8_14_31: x[2,1,4,8] + x[2,3,1,9] <= 1
 move_2_8_14_32: x[2,1,4,8] + x[2,3,2,9] <= 1
 move_2_8_14_33: x[2,1,4,8] + x[2,3,3,9] <= 1
 move_2_8_14_40: x[2,1,4,8] + x[2,4,0,9] <= 1
 move_2_8_14_41: x[2,1,4,8] + x[2,4,1,9] <= 1
 move_2_8_14_42: x[2,1,4,8] + x[2,4,2,9] <= 1
 move_2_8_14_43: x[2,1,4,8] + x[2,4,3,9] <= 1
 move_2_8_14_44: x[2,1,4,8] + x[2,4,4,9] <= 1
 move_2_8_20_01: x[2,0,1,9] + x[2,2,0,8] <= 1
 move_2_8_20_02: x[2,0,2,9] + x[2,2,0,8] <= 1
 move_2_8_20_03: x[2,0,3,9] + x[2,2,0,8] <= 1
 move_2_8_20_04: x[2,0,4,9] + x[2,2,0,8] <= 1
 move_2_8_20_12: x[2,1,2,9] + x[2,2,0,8] <= 1
 move_2_8_20_13: x[2,1,3,9] + x[2,2,0,8] <= 1
 move_2_8_20_14: x[2,1,4,9] + x[2,2,0,8] <= 1
 move_2_8_20_23: x[2,2,0,8] + x[2,2,3,9] <= 1
 move_2_8_20_24: x[2,2,0,8] + x[2,2,4,9] <= 1
 move_2_8_20_32: x[2,2,0,8] + x[2,3,2,9] <= 1
 move_2_8_20_33: x[2,2,0,8] + x[2,3,3,9] <= 1
 move_2_8_20_34: x[2,2,0,8] + x[2,3,4,9] <= 1
 move_2_8_20_41: x[2,2,0,8] + x[2,4,1,9] <= 1
 move_2_8_20_42: x[2,2,0,8] + x[2,4,2,9] <= 1
 move_2_8_20_43: x[2,2,0,8] + x[2,4,3,9] <= 1
 move_2_8_20_44: x[2,2,0,8] + x[2,4,4,9] <= 1
 move_2_8_21_00: x[2,0,0,9] + x[2,2,1,8] <= 1
 move_2_8_21_02: x[2,0,2,9] + x[2,2,1,8] <= 1
 move_2_8_21_03: x[2,0,3,9] + x[2,2,1,8] <= 1
 move_2_8_21_04: x[2,0,4,9] + x[2,2,1,8] <= 1
 move_2_8_21_13: x[2,1,3,9] + x[2,2,1,8] <= 1
 move_2_8_21_14: x[2,1,4,9] + x[2,2,1,8] <= 1
 move_2_8_21_24: x[2,2,1,8] + x[2,2,4,9] <= 1
 move_2_8_21_33: x[2,2,1,8] + x[2,3,3,9] <= 1
 move_2_8_21_34: x[2,2,1,8] + x[2,3,4,9] <= 1
 move_2_8_21_40: x[2,2,1,8] + x[2,4,0,9] <= 1
 move_2_8_21_42: x[2,2,1,8] + x[2,4,2,9] <= 1
 move_2_8_21_43: x[2,2,1,8] + x[2,4,3,9] <= 1
 move_2_8_21_44: x[2,2,1,8] + x[2,4,4,9] <= 1
 move_2_8_22_00: x[2,0,0,9] + x[2,2,2,8] <= 1
 move_2_8_22_01: x[2,0,1,9] + x[2,2,2,8] <= 1
 move_2_8_22_03: x[2,0,3,9] + x[2,2,2,8] <= 1
 move_2_8_22_04: x[2,0,4,9] + x[2,2,2,8] <= 1
 move_2_8_22_10: x[2,1,0,9] + x[2,2,2,8] <= 1
 move_2_8_22_14: x[2,1,4,9] + x[2,2,2,8] <= 1
 move_2_8_22_30: x[2,2,2,8] + x[2,3,0,9] <= 1
 move_2_8_22_34: x[2,2,2,8] + x[2,3,4,9] <= 1
 move_2_8_22_40: x[2,2,2,8] + x[2,4,0,9] <= 1
 move_2_8_22_41: x[2,2,2,8] + x[2,4,1,9] <= 1
 move_2_8_22_43: x[2,2,2,8] + x[2,4,3,9] <= 1
 move_2_8_22_44: x[2,2,2,8] + x[2,4,4,9] <= 1
 move_2_8_23_00: x[2,0,0,9] + x[2,2,3,8] <= 1
 move_2_8_23_01: x[2,0,1,9] + x[2,2,3,8] <= 1
 move_2_8_23_02: x[2,0,2,9] + x[2,2,3,8] <= 1
 move_2_8_23_04: x[2,0,4,9] + x[2,2,3,8] <= 1
 move_2_8_23_10: x[2,1,0,9] + x[2,2,3,8] <= 1
 move_2_8_23_11: x[2,1,1,9] + x[2,2,3,8] <= 1
 move_2_8_23_20: x[2,2,0,9] + x[2,2,3,8] <= 1
 move_2_8_23_30: x[2,2,3,8] + x[2,3,0,9] <= 1
 move_2_8_23_31: x[2,2,3,8] + x[2,3,1,9] <= 1
 move_2_8_23_40: x[2,2,3,8] + x[2,4,0,9] <= 1
 move_2_8_23_41: x[2,2,3,8] + x[2,4,1,9] <= 1
 move_2_8_23_42: x[2,2,3,8] + x[2,4,2,9] <= 1
 move_2_8_23_44: x[2,2,3,8] + x[2,4,4,9] <= 1
 move_2_8_24_00: x[2,0,0,9] + x[2,2,4,8] <= 1
 move_2_8_24_01: x[2,0,1,9] + x[2,2,4,8] <= 1
 move_2_8_24_02: x[2,0,2,9] + x[2,2,4,8] <= 1
 move_2_8_24_03: x[2,0,3,9] + x[2,2,4,8] <= 1
 move_2_8_24_10: x[2,1,0,9] + x[2,2,4,8] <= 1
 move_2_8_24_11: x[2,1,1,9] + x[2,2,4,8] <= 1
 move_2_8_24_12: x[2,1,2,9] + x[2,2,4,8] <= 1
 move_2_8_24_20: x[2,2,0,9] + x[2,2,4,8] <= 1
 move_2_8_24_21: x[2,2,1,9] + x[2,2,4,8] <= 1
 move_2_8_24_30: x[2,2,4,8] + x[2,3,0,9] <= 1
 move_2_8_24_31: x[2,2,4,8] + x[2,3,1,9] <= 1
 move_2_8_24_32: x[2,2,4,8] + x[2,3,2,9] <= 1
 move_2_8_24_40: x[2,2,4,8] + x[2,4,0,9] <= 1
 move_2_8_24_41: x[2,2,4,8] + x[2,4,1,9] <= 1
 move_2_8_24_42: x[2,2,4,8] + x[2,4,2,9] <= 1
 move_2_8_24_43: x[2,2,4,8] + x[2,4,3,9] <= 1
 move_2_8_30_00: x[2,0,0,9] + x[2,3,0,8] <= 1
 move_2_8_30_01: x[2,0,1,9] + x[2,3,0,8] <= 1
 move_2_8_30_02: x[2,0,2,9] + x[2,3,0,8] <= 1
 move_2_8_30_03: x[2,0,3,9] + x[2,3,0,8] <= 1
 move_2_8_30_04: x[2,0,4,9] + x[2,3,0,8] <= 1
 move_2_8_30_11: x[2,1,1,9] + x[2,3,0,8] <= 1
 move_2_8_30_12: x[2,1,2,9] + x[2,3,0,8] <= 1
 move_2_8_30_13: x[2,1,3,9] + x[2,3,0,8] <= 1
 move_2_8_30_14: x[2,1,4,9] + x[2,3,0,8] <= 1
 move_2_8_30_22: x[2,2,2,9] + x[2,3,0,8] <= 1
 move_2_8_30_23: x[2,2,3,9] + x[2,3,0,8] <= 1
 move_2_8_30_24: x[2,2,4,9] + x[2,3,0,8] <= 1
 move_2_8_30_33: x[2,3,0,8] + x[2,3,3,9] <= 1
 move_2_8_30_34: x[2,3,0,8] + x[2,3,4,9] <= 1
 move_2_8_30_42: x[2,3,0,8] + x[2,4,2,9] <= 1
 move_2_8_30_43: x[2,3,0,8] + x[2,4,3,9] <= 1
 move_2_8_30_44: x[2,3,0,8] + x[2,4,4,9] <= 1
 move_2_8_31_00: x[2,0,0,9] + x[2,3,1,8] <= 1
 move_2_8_31_01: x[2,0,1,9] + x[2,3,1,8] <= 1
 move_2_8_31_02: x[2,0,2,9] + x[2,3,1,8] <= 1
 move_2_8_31_03: x[2,0,3,9] + x[2,3,1,8] <= 1
 move_2_8_31_04: x[2,0,4,9] + x[2,3,1,8] <= 1
 move_2_8_31_10: x[2,1,0,9] + x[2,3,1,8] <= 1
 move_2_8_31_12: x[2,1,2,9] + x[2,3,1,8] <= 1
 move_2_8_31_13: x[2,1,3,9] + x[2,3,1,8] <= 1
 move_2_8_31_14: x[2,1,4,9] + x[2,3,1,8] <= 1
 move_2_8_31_23: x[2,2,3,9] + x[2,3,1,8] <= 1
 move_2_8_31_24: x[2,2,4,9] + x[2,3,1,8] <= 1
 move_2_8_31_34: x[2,3,1,8] + x[2,3,4,9] <= 1
 move_2_8_31_43: x[2,3,1,8] + x[2,4,3,9] <= 1
 move_2_8_31_44: x[2,3,1,8] + x[2,4,4,9] <= 1
 move_2_8_32_00: x[2,0,0,9] + x[2,3,2,8] <= 1
 move_2_8_32_01: x[2,0,1,9] + x[2,3,2,8] <= 1
 move_2_8_32_02: x[2,0,2,9] + x[2,3,2,8] <= 1
 move_2_8_32_03: x[2,0,3,9] + x[2,3,2,8] <= 1
 move_2_8_32_04: x[2,0,4,9] + x[2,3,2,8] <= 1
 move_2_8_32_10: x[2,1,0,9] + x[2,3,2,8] <= 1
 move_2_8_32_11: x[2,1,1,9] + x[2,3,2,8] <= 1
 move_2_8_32_13: x[2,1,3,9] + x[2,3,2,8] <= 1
 move_2_8_32_14: x[2,1,4,9] + x[2,3,2,8] <= 1
 move_2_8_32_20: x[2,2,0,9] + x[2,3,2,8] <= 1
 move_2_8_32_24: x[2,2,4,9] + x[2,3,2,8] <= 1
 move_2_8_32_40: x[2,3,2,8] + x[2,4,0,9] <= 1
 move_2_8_32_44: x[2,3,2,8] + x[2,4,4,9] <= 1
 move_2_8_33_00: x[2,0,0,9] + x[2,3,3,8] <= 1
 move_2_8_33_01: x[2,0,1,9] + x[2,3,3,8] <= 1
 move_2_8_33_02: x[2,0,2,9] + x[2,3,3,8] <= 1
 move_2_8_33_03: x[2,0,3,9] + x[2,3,3,8] <= 1
 move_2_8_33_04: x[2,0,4,9] + x[2,3,3,8] <= 1
 move_2_8_33_10: x[2,1,0,9] + x[2,3,3,8] <= 1
 move_2_8_33_11: x[2,1,1,9] + x[2,3,3,8] <= 1
 move_2_8_33_12: x[2,1,2,9] + x[2,3,3,8] <= 1
 move_2_8_33_14: x[2,1,4,9] + x[2,3,3,8] <= 1
 move_2_8_33_20: x[2,2,0,9] + x[2,3,3,8] <= 1
 move_2_8_33_21: x[2,2,1,9] + x[2,3,3,8] <= 1
 move_2_8_33_30: x[2,3,0,9] + x[2,3,3,8] <= 1
 move_2_8_33_40: x[2,3,3,8] + x[2,4,0,9] <= 1
 move_2_8_33_41: x[2,3,3,8] + x[2,4,1,9] <= 1
 move_2_8_34_00: x[2,0,0,9] + x[2,3,4,8] <= 1
 move_2_8_34_01: x[2,0,1,9] + x[2,3,4,8] <= 1
 move_2_8_34_02: x[2,0,2,9] + x[2,3,4,8] <= 1
 move_2_8_34_03: x[2,0,3,9] + x[2,3,4,8] <= 1
 move_2_8_34_04: x[2,0,4,9] + x[2,3,4,8] <= 1
 move_2_8_34_10: x[2,1,0,9] + x[2,3,4,8] <= 1
 move_2_8_34_11: x[2,1,1,9] + x[2,3,4,8] <= 1
 move_2_8_34_12: x[2,1,2,9] + x[2,3,4,8] <= 1
 move_2_8_34_13: x[2,1,3,9] + x[2,3,4,8] <= 1
 move_2_8_34_20: x[2,2,0,9] + x[2,3,4,8] <= 1
 move_2_8_34_21: x[2,2,1,9] + x[2,3,4,8] <= 1
 move_2_8_34_22: x[2,2,2,9] + x[2,3,4,8] <= 1
 move_2_8_34_30: x[2,3,0,9] + x[2,3,4,8] <= 1
 move_2_8_34_31: x[2,3,1,9] + x[2,3,4,8] <= 1
 move_2_8_34_40: x[2,3,4,8] + x[2,4,0,9] <= 1
 move_2_8_34_41: x[2,3,4,8] + x[2,4,1,9] <= 1
 move_2_8_34_42: x[2,3,4,8] + x[2,4,2,9] <= 1
 move_2_8_40_00: x[2,0,0,9] + x[2,4,0,8] <= 1
 move_2_8_40_01: x[2,0,1,9] + x[2,4,0,8] <= 1
 move_2_8_40_02: x[2,0,2,9] + x[2,4,0,8] <= 1
 move_2_8_40_03: x[2,0,3,9] + x[2,4,0,8] <= 1
 move_2_8_40_04: x[2,0,4,9] + x[2,4,0,8] <= 1
 move_2_8_40_10: x[2,1,0,9] + x[2,4,0,8] <= 1
 move_2_8_40_11: x[2,1,1,9] + x[2,4,0,8] <= 1
 move_2_8_40_12: x[2,1,2,9] + x[2,4,0,8] <= 1
 move_2_8_40_13: x[2,1,3,9] + x[2,4,0,8] <= 1
 move_2_8_40_14: x[2,1,4,9] + x[2,4,0,8] <= 1
 move_2_8_40_21: x[2,2,1,9] + x[2,4,0,8] <= 1
 move_2_8_40_22: x[2,2,2,9] + x[2,4,0,8] <= 1
 move_2_8_40_23: x[2,2,3,9] + x[2,4,0,8] <= 1
 move_2_8_40_24: x[2,2,4,9] + x[2,4,0,8] <= 1
 move_2_8_40_32: x[2,3,2,9] + x[2,4,0,8] <= 1
 move_2_8_40_33: x[2,3,3,9] + x[2,4,0,8] <= 1
 move_2_8_40_34: x[2,3,4,9] + x[2,4,0,8] <= 1
 move_2_8_40_43: x[2,4,0,8] + x[2,4,3,9] <= 1
 move_2_8_40_44: x[2,4,0,8] + x[2,4,4,9] <= 1
 move_2_8_41_00: x[2,0,0,9] + x[2,4,1,8] <= 1
 move_2_8_41_01: x[2,0,1,9] + x[2,4,1,8] <= 1
 move_2_8_41_02: x[2,0,2,9] + x[2,4,1,8] <= 1
 move_2_8_41_03: x[2,0,3,9] + x[2,4,1,8] <= 1
 move_2_8_41_04: x[2,0,4,9] + x[2,4,1,8] <= 1
 move_2_8_41_10: x[2,1,0,9] + x[2,4,1,8] <= 1
 move_2_8_41_11: x[2,1,1,9] + x[2,4,1,8] <= 1
 move_2_8_41_12: x[2,1,2,9] + x[2,4,1,8] <= 1
 move_2_8_41_13: x[2,1,3,9] + x[2,4,1,8] <= 1
 move_2_8_41_14: x[2,1,4,9] + x[2,4,1,8] <= 1
 move_2_8_41_20: x[2,2,0,9] + x[2,4,1,8] <= 1
 move_2_8_41_22: x[2,2,2,9] + x[2,4,1,8] <= 1
 move_2_8_41_23: x[2,2,3,9] + x[2,4,1,8] <= 1
 move_2_8_41_24: x[2,2,4,9] + x[2,4,1,8] <= 1
 move_2_8_41_33: x[2,3,3,9] + x[2,4,1,8] <= 1
 move_2_8_41_34: x[2,3,4,9] + x[2,4,1,8] <= 1
 move_2_8_41_44: x[2,4,1,8] + x[2,4,4,9] <= 1
 move_2_8_42_00: x[2,0,0,9] + x[2,4,2,8] <= 1
 move_2_8_42_01: x[2,0,1,9] + x[2,4,2,8] <= 1
 move_2_8_42_02: x[2,0,2,9] + x[2,4,2,8] <= 1
 move_2_8_42_03: x[2,0,3,9] + x[2,4,2,8] <= 1
 move_2_8_42_04: x[2,0,4,9] + x[2,4,2,8] <= 1
 move_2_8_42_10: x[2,1,0,9] + x[2,4,2,8] <= 1
 move_2_8_42_11: x[2,1,1,9] + x[2,4,2,8] <= 1
 move_2_8_42_12: x[2,1,2,9] + x[2,4,2,8] <= 1
 move_2_8_42_13: x[2,1,3,9] + x[2,4,2,8] <= 1
 move_2_8_42_14: x[2,1,4,9] + x[2,4,2,8] <= 1
 move_2_8_42_20: x[2,2,0,9] + x[2,4,2,8] <= 1
 move_2_8_42_21: x[2,2,1,9] + x[2,4,2,8] <= 1
 move_2_8_42_23: x[2,2,3,9] + x[2,4,2,8] <= 1
 move_2_8_42_24: x[2,2,4,9] + x[2,4,2,8] <= 1
 move_2_8_42_30: x[2,3,0,9] + x[2,4,2,8] <= 1
 move_2_8_42_34: x[2,3,4,9] + x[2,4,2,8] <= 1
 move_2_8_43_00: x[2,0,0,9] + x[2,4,3,8] <= 1
 move_2_8_43_01: x[2,0,1,9] + x[2,4,3,8] <= 1
 move_2_8_43_02: x[2,0,2,9] + x[2,4,3,8] <= 1
 move_2_8_43_03: x[2,0,3,9] + x[2,4,3,8] <= 1
 move_2_8_43_04: x[2,0,4,9] + x[2,4,3,8] <= 1
 move_2_8_43_10: x[2,1,0,9] + x[2,4,3,8] <= 1
 move_2_8_43_11: x[2,1,1,9] + x[2,4,3,8] <= 1
 move_2_8_43_12: x[2,1,2,9] + x[2,4,3,8] <= 1
 move_2_8_43_13: x[2,1,3,9] + x[2,4,3,8] <= 1
 move_2_8_43_14: x[2,1,4,9] + x[2,4,3,8] <= 1
 move_2_8_43_20: x[2,2,0,9] + x[2,4,3,8] <= 1
 move_2_8_43_21: x[2,2,1,9] + x[2,4,3,8] <= 1
 move_2_8_43_22: x[2,2,2,9] + x[2,4,3,8] <= 1
 move_2_8_43_24: x[2,2,4,9] + x[2,4,3,8] <= 1
 move_2_8_43_30: x[2,3,0,9] + x[2,4,3,8] <= 1
 move_2_8_43_31: x[2,3,1,9] + x[2,4,3,8] <= 1
 move_2_8_43_40: x[2,4,0,9] + x[2,4,3,8] <= 1
 move_2_8_44_00: x[2,0,0,9] + x[2,4,4,8] <= 1
 move_2_8_44_01: x[2,0,1,9] + x[2,4,4,8] <= 1
 move_2_8_44_02: x[2,0,2,9] + x[2,4,4,8] <= 1
 move_2_8_44_03: x[2,0,3,9] + x[2,4,4,8] <= 1
 move_2_8_44_04: x[2,0,4,9] + x[2,4,4,8] <= 1
 move_2_8_44_10: x[2,1,0,9] + x[2,4,4,8] <= 1
 move_2_8_44_11: x[2,1,1,9] + x[2,4,4,8] <= 1
 move_2_8_44_12: x[2,1,2,9] + x[2,4,4,8] <= 1
 move_2_8_44_13: x[2,1,3,9] + x[2,4,4,8] <= 1
 move_2_8_44_14: x[2,1,4,9] + x[2,4,4,8] <= 1
 move_2_8_44_20: x[2,2,0,9] + x[2,4,4,8] <= 1
 move_2_8_44_21: x[2,2,1,9] + x[2,4,4,8] <= 1
 move_2_8_44_22: x[2,2,2,9] + x[2,4,4,8] <= 1
 move_2_8_44_23: x[2,2,3,9] + x[2,4,4,8] <= 1
 move_2_8_44_30: x[2,3,0,9] + x[2,4,4,8] <= 1
 move_2_8_44_31: x[2,3,1,9] + x[2,4,4,8] <= 1
 move_2_8_44_32: x[2,3,2,9] + x[2,4,4,8] <= 1
 move_2_8_44_40: x[2,4,0,9] + x[2,4,4,8] <= 1
 move_2_8_44_41: x[2,4,1,9] + x[2,4,4,8] <= 1
 drop_at_cell_0_0_0_0: - 3000 x[0,0,0,0] + d[0,0,0,0] <= 0
 drop_at_cell_0_0_0_1: - 3000 x[0,0,0,1] + d[0,0,0,1] <= 0
 drop_at_cell_0_0_0_2: - 3000 x[0,0,0,2] + d[0,0,0,2] <= 0
 drop_at_cell_0_0_0_3: - 3000 x[0,0,0,3] + d[0,0,0,3] <= 0
 drop_at_cell_0_0_0_4: - 3000 x[0,0,0,4] + d[0,0,0,4] <= 0
 drop_at_cell_0_0_0_5: - 3000 x[0,0,0,5] + d[0,0,0,5] <= 0
 drop_at_cell_0_0_0_6: - 3000 x[0,0,0,6] + d[0,0,0,6] <= 0
 drop_at_cell_0_0_0_7: - 3000 x[0,0,0,7] + d[0,0,0,7] <= 0
 drop_at_cell_0_0_0_8: - 3000 x[0,0,0,8] + d[0,0,0,8] <= 0
 drop_at_cell_0_0_0_9: - 3000 x[0,0,0,9] + d[0,0,0,9] <= 0
 drop_at_cell_0_0_1_0: - 3000 x[0,0,1,0] + d[0,0,1,0] <= 0
 drop_at_cell_0_0_1_1: - 3000 x[0,0,1,1] + d[0,0,1,1] <= 0
 drop_at_cell_0_0_1_2: - 3000 x[0,0,1,2] + d[0,0,1,2] <= 0
 drop_at_cell_0_0_1_3: - 3000 x[0,0,1,3] + d[0,0,1,3] <= 0
 drop_at_cell_0_0_1_4: - 3000 x[0,0,1,4] + d[0,0,1,4] <= 0
 drop_at_cell_0_0_1_5: - 3000 x[0,0,1,5] + d[0,0,1,5] <= 0
 drop_at_cell_0_0_1_6: - 3000 x[0,0,1,6] + d[0,0,1,6] <= 0
 drop_at_cell_0_0_1_7: - 3000 x[0,0,1,7] + d[0,0,1,7] <= 0
 drop_at_cell_0_0_1_8: - 3000 x[0,0,1,8] + d[0,0,1,8] <= 0
 drop_at_cell_0_0_1_9: - 3000 x[0,0,1,9] + d[0,0,1,9] <= 0
 drop_at_cell_0_0_2_0: - 3000 x[0,0,2,0] + d[0,0,2,0] <= 0
 drop_at_cell_0_0_2_1: - 3000 x[0,0,2,1] + d[0,0,2,1] <= 0
 drop_at_cell_0_0_2_2: - 3000 x[0,0,2,2] + d[0,0,2,2] <= 0
 drop_at_cell_0_0_2_3: - 3000 x[0,0,2,3] + d[0,0,2,3] <= 0
 drop_at_cell_0_0_2_4: - 3000 x[0,0,2,4] + d[0,0,2,4] <= 0
 drop_at_cell_0_0_2_5: - 3000 x[0,0,2,5] + d[0,0,2,5] <= 0
 drop_at_cell_0_0_2_6: - 3000 x[0,0,2,6] + d[0,0,2,6] <= 0
 drop_at_cell_0_0_2_7: - 3000 x[0,0,2,7] + d[0,0,2,7] <= 0
 drop_at_cell_0_0_2_8: - 3000 x[0,0,2,8] + d[0,0,2,8] <= 0
 drop_at_cell_0_0_2_9: - 3000 x[0,0,2,9] + d[0,0,2,9] <= 0
 drop_at_cell_0_0_3_0: - 3000 x[0,0,3,0] + d[0,0,3,0] <= 0
 drop_at_cell_0_0_3_1: - 3000 x[0,0,3,1] + d[0,0,3,1] <= 0
 drop_at_cell_0_0_3_2: - 3000 x[0,0,3,2] + d[0,0,3,2] <= 0
 drop_at_cell_0_0_3_3: - 3000 x[0,0,3,3] + d[0,0,3,3] <= 0
 drop_at_cell_0_0_3_4: - 3000 x[0,0,3,4] + d[0,0,3,4] <= 0
 drop_at_cell_0_0_3_5: - 3000 x[0,0,3,5] + d[0,0,3,5] <= 0
 drop_at_cell_0_0_3_6: - 3000 x[0,0,3,6] + d[0,0,3,6] <= 0
 drop_at_cell_0_0_3_7: - 3000 x[0,0,3,7] + d[0,0,3,7] <= 0
 drop_at_cell_0_0_3_8: - 3000 x[0,0,3,8] + d[0,0,3,8] <= 0
 drop_at_cell_0_0_3_9: - 3000 x[0,0,3,9] + d[0,0,3,9] <= 0
 drop_at_cell_0_0_4_0: - 3000 x[0,0,4,0] + d[0,0,4,0] <= 0
 drop_at_cell_0_0_4_1: - 3000 x[0,0,4,1] + d[0,0,4,1] <= 0
 drop_at_cell_0_0_4_2: - 3000 x[0,0,4,2] + d[0,0,4,2] <= 0
 drop_at_cell_0_0_4_3: - 3000 x[0,0,4,3] + d[0,0,4,3] <= 0
 drop_at_cell_0_0_4_4: - 3000 x[0,0,4,4] + d[0,0,4,4] <= 0
 drop_at_cell_0_0_4_5: - 3000 x[0,0,4,5] + d[0,0,4,5] <= 0
 drop_at_cell_0_0_4_6: - 3000 x[0,0,4,6] + d[0,0,4,6] <= 0
 drop_at_cell_0_0_4_7: - 3000 x[0,0,4,7] + d[0,0,4,7] <= 0
 drop_at_cell_0_0_4_8: - 3000 x[0,0,4,8] + d[0,0,4,8] <= 0
 drop_at_cell_0_0_4_9: - 3000 x[0,0,4,9] + d[0,0,4,9] <= 0
 drop_at_cell_0_1_0_0: - 3000 x[0,1,0,0] + d[0,1,0,0] <= 0
 drop_at_cell_0_1_0_1: - 3000 x[0,1,0,1] + d[0,1,0,1] <= 0
 drop_at_cell_0_1_0_2: - 3000 x[0,1,0,2] + d[0,1,0,2] <= 0
 drop_at_cell_0_1_0_3: - 3000 x[0,1,0,3] + d[0,1,0,3] <= 0
 drop_at_cell_0_1_0_4: - 3000 x[0,1,0,4] + d[0,1,0,4] <= 0
 drop_at_cell_0_1_0_5: - 3000 x[0,1,0,5] + d[0,1,0,5] <= 0
 drop_at_cell_0_1_0_6: - 3000 x[0,1,0,6] + d[0,1,0,6] <= 0
 drop_at_cell_0_1_0_7: - 3000 x[0,1,0,7] + d[0,1,0,7] <= 0
 drop_at_cell_0_1_0_8: - 3000 x[0,1,0,8] + d[0,1,0,8] <= 0
 drop_at_cell_0_1_0_9: - 3000 x[0,1,0,9] + d[0,1,0,9] <= 0
 drop_at_cell_0_1_1_0: - 3000 x[0,1,1,0] + d[0,1,1,0] <= 0
 drop_at_cell_0_1_1_1: - 3000 x[0,1,1,1] + d[0,1,1,1] <= 0
 drop_at_cell_0_1_1_2: - 3000 x[0,1,1,2] + d[0,1,1,2] <= 0
 drop_at_cell_0_1_1_3: - 3000 x[0,1,1,3] + d[0,1,1,3] <= 0
 drop_at_cell_0_1_1_4: - 3000 x[0,1,1,4] + d[0,1,1,4] <= 0
 drop_at_cell_0_1_1_5: - 3000 x[0,1,1,5] + d[0,1,1,5] <= 0
 drop_at_cell_0_1_1_6: - 3000 x[0,1,1,6] + d[0,1,1,6] <= 0
 drop_at_cell_0_1_1_7: - 3000 x[0,1,1,7] + d[0,1,1,7] <= 0
 drop_at_cell_0_1_1_8: - 3000 x[0,1,1,8] + d[0,1,1,8] <= 0
 drop_at_cell_0_1_1_9: - 3000 x[0,1,1,9] + d[0,1,1,9] <= 0
 drop_at_cell_0_1_2_0: - 3000 x[0,1,2,0] + d[0,1,2,0] <= 0
 drop_at_cell_0_1_2_1: - 3000 x[0,1,2,1] + d[0,1,2,1] <= 0
 drop_at_cell_0_1_2_2: - 3000 x[0,1,2,2] + d[0,1,2,2] <= 0
 drop_at_cell_0_1_2_3: - 3000 x[0,1,2,3] + d[0,1,2,3] <= 0
 drop_at_cell_0_1_2_4: - 3000 x[0,1,2,4] + d[0,1,2,4] <= 0
 drop_at_cell_0_1_2_5: - 3000 x[0,1,2,5] + d[0,1,2,5] <= 0
 drop_at_cell_0_1_2_6: - 3000 x[0,1,2,6] + d[0,1,2,6] <= 0
 drop_at_cell_0_1_2_7: - 3000 x[0,1,2,7] + d[0,1,2,7] <= 0
 drop_at_cell_0_1_2_8: - 3000 x[0,1,2,8] + d[0,1,2,8] <= 0
 drop_at_cell_0_1_2_9: - 3000 x[0,1,2,9] + d[0,1,2,9] <= 0
 drop_at_cell_0_1_3_0: - 3000 x[0,1,3,0] + d[0,1,3,0] <= 0
 drop_at_cell_0_1_3_1: - 3000 x[0,1,3,1] + d[0,1,3,1] <= 0
 drop_at_cell_0_1_3_2: - 3000 x[0,1,3,2] + d[0,1,3,2] <= 0
 drop_at_cell_0_1_3_3: - 3000 x[0,1,3,3] + d[0,1,3,3] <= 0
 drop_at_cell_0_1_3_4: - 3000 x[0,1,3,4] + d[0,1,3,4] <= 0
 drop_at_cell_0_1_3_5: - 3000 x[0,1,3,5] + d[0,1,3,5] <= 0
 drop_at_cell_0_1_3_6: - 3000 x[0,1,3,6] + d[0,1,3,6] <= 0
 drop_at_cell_0_1_3_7: - 3000 x[0,1,3,7] + d[0,1,3,7] <= 0
 drop_at_cell_0_1_3_8: - 3000 x[0,1,3,8] + d[0,1,3,8] <= 0
 drop_at_cell_0_1_3_9: - 3000 x[0,1,3,9] + d[0,1,3,9] <= 0
 drop_at_cell_0_1_4_0: - 3000 x[0,1,4,0] + d[0,1,4,0] <= 0
 drop_at_cell_0_1_4_1: - 3000 x[0,1,4,1] + d[0,1,4,1] <= 0
 drop_at_cell_0_1_4_2: - 3000 x[0,1,4,2] + d[0,1,4,2] <= 0
 drop_at_cell_0_1_4_3: - 3000 x[0,1,4,3] + d[0,1,4,3] <= 0
 drop_at_cell_0_1_4_4: - 3000 x[0,1,4,4] + d[0,1,4,4] <= 0
 drop_at_cell_0_1_4_5: - 3000 x[0,1,4,5] + d[0,1,4,5] <= 0
 drop_at_cell_0_1_4_6: - 3000 x[0,1,4,6] + d[0,1,4,6] <= 0
 drop_at_cell_0_1_4_7: - 3000 x[0,1,4,7] + d[0,1,4,7] <= 0
 drop_at_cell_0_1_4_8: - 3000 x[0,1,4,8] + d[0,1,4,8] <= 0
 drop_at_cell_0_1_4_9: - 3000 x[0,1,4,9] + d[0,1,4,9] <= 0
 drop_at_cell_0_2_0_0: - 3000 x[0,2,0,0] + d[0,2,0,0] <= 0
 drop_at_cell_0_2_0_1: - 3000 x[0,2,0,1] + d[0,2,0,1] <= 0
 drop_at_cell_0_2_0_2: - 3000 x[0,2,0,2] + d[0,2,0,2] <= 0
 drop_at_cell_0_2_0_3: - 3000 x[0,2,0,3] + d[0,2,0,3] <= 0
 drop_at_cell_0_2_0_4: - 3000 x[0,2,0,4] + d[0,2,0,4] <= 0
 drop_at_cell_0_2_0_5: - 3000 x[0,2,0,5] + d[0,2,0,5] <= 0
 drop_at_cell_0_2_0_6: - 3000 x[0,2,0,6] + d[0,2,0,6] <= 0
 drop_at_cell_0_2_0_7: - 3000 x[0,2,0,7] + d[0,2,0,7] <= 0
 drop_at_cell_0_2_0_8: - 3000 x[0,2,0,8] + d[0,2,0,8] <= 0
 drop_at_cell_0_2_0_9: - 3000 x[0,2,0,9] + d[0,2,0,9] <= 0
 drop_at_cell_0_2_1_0: - 3000 x[0,2,1,0] + d[0,2,1,0] <= 0
 drop_at_cell_0_2_1_1: - 3000 x[0,2,1,1] + d[0,2,1,1] <= 0
 drop_at_cell_0_2_1_2: - 3000 x[0,2,1,2] + d[0,2,1,2] <= 0
 drop_at_cell_0_2_1_3: - 3000 x[0,2,1,3] + d[0,2,1,3] <= 0
 drop_at_cell_0_2_1_4: - 3000 x[0,2,1,4] + d[0,2,1,4] <= 0
 drop_at_cell_0_2_1_5: - 3000 x[0,2,1,5] + d[0,2,1,5] <= 0
 drop_at_cell_0_2_1_6: - 3000 x[0,2,1,6] + d[0,2,1,6] <= 0
 drop_at_cell_0_2_1_7: - 3000 x[0,2,1,7] + d[0,2,1,7] <= 0
 drop_at_cell_0_2_1_8: - 3000 x[0,2,1,8] + d[0,2,1,8] <= 0
 drop_at_cell_0_2_1_9: - 3000 x[0,2,1,9] + d[0,2,1,9] <= 0
 drop_at_cell_0_2_2_0: - 3000 x[0,2,2,0] + d[0,2,2,0] <= 0
 drop_at_cell_0_2_2_1: - 3000 x[0,2,2,1] + d[0,2,2,1] <= 0
 drop_at_cell_0_2_2_2: - 3000 x[0,2,2,2] + d[0,2,2,2] <= 0
 drop_at_cell_0_2_2_3: - 3000 x[0,2,2,3] + d[0,2,2,3] <= 0
 drop_at_cell_0_2_2_4: - 3000 x[0,2,2,4] + d[0,2,2,4] <= 0
 drop_at_cell_0_2_2_5: - 3000 x[0,2,2,5] + d[0,2,2,5] <= 0
 drop_at_cell_0_2_2_6: - 3000 x[0,2,2,6] + d[0,2,2,6] <= 0
 drop_at_cell_0_2_2_7: - 3000 x[0,2,2,7] + d[0,2,2,7] <= 0
 drop_at_cell_0_2_2_8: - 3000 x[0,2,2,8] + d[0,2,2,8] <= 0
 drop_at_cell_0_2_2_9: - 3000 x[0,2,2,9] + d[0,2,2,9] <= 0
 drop_at_cell_0_2_3_0: - 3000 x[0,2,3,0] + d[0,2,3,0] <= 0
 drop_at_cell_0_2_3_1: - 3000 x[0,2,3,1] + d[0,2,3,1] <= 0
 drop_at_cell_0_2_3_2: - 3000 x[0,2,3,2] + d[0,2,3,2] <= 0
 drop_at_cell_0_2_3_3: - 3000 x[0,2,3,3] + d[0,2,3,3] <= 0
 drop_at_cell_0_2_3_4: - 3000 x[0,2,3,4] + d[0,2,3,4] <= 0
 drop_at_cell_0_2_3_5: - 3000 x[0,2,3,5] + d[0,2,3,5] <= 0
 drop_at_cell_0_2_3_6: - 3000 x[0,2,3,6] + d[0,2,3,6] <= 0
 drop_at_cell_0_2_3_7: - 3000 x[0,2,3,7] + d[0,2,3,7] <= 0
 drop_at_cell_0_2_3_8: - 3000 x[0,2,3,8] + d[0,2,3,8] <= 0
 drop_at_cell_0_2_3_9: - 3000 x[0,2,3,9] + d[0,2,3,9] <= 0
 drop_at_cell_0_2_4_0: - 3000 x[0,2,4,0] + d[0,2,4,0] <= 0
 drop_at_cell_0_2_4_1: - 3000 x[0,2,4,1] + d[0,2,4,1] <= 0
 drop_at_cell_0_2_4_2: - 3000 x[0,2,4,2] + d[0,2,4,2] <= 0
 drop_at_cell_0_2_4_3: - 3000 x[0,2,4,3] + d[0,2,4,3] <= 0
 drop_at_cell_0_2_4_4: - 3000 x[0,2,4,4] + d[0,2,4,4] <= 0
 drop_at_cell_0_2_4_5: - 3000 x[0,2,4,5] + d[0,2,4,5] <= 0
 drop_at_cell_0_2_4_6: - 3000 x[0,2,4,6] + d[0,2,4,6] <= 0
 drop_at_cell_0_2_4_7: - 3000 x[0,2,4,7] + d[0,2,4,7] <= 0
 drop_at_cell_0_2_4_8: - 3000 x[0,2,4,8] + d[0,2,4,8] <= 0
 drop_at_cell_0_2_4_9: - 3000 x[0,2,4,9] + d[0,2,4,9] <= 0
 drop_at_cell_0_3_0_0: - 3000 x[0,3,0,0] + d[0,3,0,0] <= 0
 drop_at_cell_0_3_0_1: - 3000 x[0,3,0,1] + d[0,3,0,1] <= 0
 drop_at_cell_0_3_0_2: - 3000 x[0,3,0,2] + d[0,3,0,2] <= 0
 drop_at_cell_0_3_0_3: - 3000 x[0,3,0,3] + d[0,3,0,3] <= 0
 drop_at_cell_0_3_0_4: - 3000 x[0,3,0,4] + d[0,3,0,4] <= 0
 drop_at_cell_0_3_0_5: - 3000 x[0,3,0,5] + d[0,3,0,5] <= 0
 drop_at_cell_0_3_0_6: - 3000 x[0,3,0,6] + d[0,3,0,6] <= 0
 drop_at_cell_0_3_0_7: - 3000 x[0,3,0,7] + d[0,3,0,7] <= 0
 drop_at_cell_0_3_0_8: - 3000 x[0,3,0,8] + d[0,3,0,8] <= 0
 drop_at_cell_0_3_0_9: - 3000 x[0,3,0,9] + d[0,3,0,9] <= 0
 drop_at_cell_0_3_1_0: - 3000 x[0,3,1,0] + d[0,3,1,0] <= 0
 drop_at_cell_0_3_1_1: - 3000 x[0,3,1,1] + d[0,3,1,1] <= 0
 drop_at_cell_0_3_1_2: - 3000 x[0,3,1,2] + d[0,3,1,2] <= 0
 drop_at_cell_0_3_1_3: - 3000 x[0,3,1,3] + d[0,3,1,3] <= 0
 drop_at_cell_0_3_1_4: - 3000 x[0,3,1,4] + d[0,3,1,4] <= 0
 drop_at_cell_0_3_1_5: - 3000 x[0,3,1,5] + d[0,3,1,5] <= 0
 drop_at_cell_0_3_1_6: - 3000 x[0,3,1,6] + d[0,3,1,6] <= 0
 drop_at_cell_0_3_1_7: - 3000 x[0,3,1,7] + d[0,3,1,7] <= 0
 drop_at_cell_0_3_1_8: - 3000 x[0,3,1,8] + d[0,3,1,8] <= 0
 drop_at_cell_0_3_1_9: - 3000 x[0,3,1,9] + d[0,3,1,9] <= 0
 drop_at_cell_0_3_2_0: - 3000 x[0,3,2,0] + d[0,3,2,0] <= 0
 drop_at_cell_0_3_2_1: - 3000 x[0,3,2,1] + d[0,3,2,1] <= 0
 drop_at_cell_0_3_2_2: - 3000 x[0,3,2,2] + d[0,3,2,2] <= 0
 drop_at_cell_0_3_2_3: - 3000 x[0,3,2,3] + d[0,3,2,3] <= 0
 drop_at_cell_0_3_2_4: - 3000 x[0,3,2,4] + d[0,3,2,4] <= 0
 drop_at_cell_0_3_2_5: - 3000 x[0,3,2,5] + d[0,3,2,5] <= 0
 drop_at_cell_0_3_2_6: - 3000 x[0,3,2,6] + d[0,3,2,6] <= 0
 drop_at_cell_0_3_2_7: - 3000 x[0,3,2,7] + d[0,3,2,7] <= 0
 drop_at_cell_0_3_2_8: - 3000 x[0,3,2,8] + d[0,3,2,8] <= 0
 drop_at_cell_0_3_2_9: - 3000 x[0,3,2,9] + d[0,3,2,9] <= 0
 drop_at_cell_0_3_3_0: - 3000 x[0,3,3,0] + d[0,3,3,0] <= 0
 drop_at_cell_0_3_3_1: - 3000 x[0,3,3,1] + d[0,3,3,1] <= 0
 drop_at_cell_0_3_3_2: - 3000 x[0,3,3,2] + d[0,3,3,2] <= 0
 drop_at_cell_0_3_3_3: - 3000 x[0,3,3,3] + d[0,3,3,3] <= 0
 drop_at_cell_0_3_3_4: - 3000 x[0,3,3,4] + d[0,3,3,4] <= 0
 drop_at_cell_0_3_3_5: - 3000 x[0,3,3,5] + d[0,3,3,5] <= 0
 drop_at_cell_0_3_3_6: - 3000 x[0,3,3,6] + d[0,3,3,6] <= 0
 drop_at_cell_0_3_3_7: - 3000 x[0,3,3,7] + d[0,3,3,7] <= 0
 drop_at_cell_0_3_3_8: - 3000 x[0,3,3,8] + d[0,3,3,8] <= 0
 drop_at_cell_0_3_3_9: - 3000 x[0,3,3,9] + d[0,3,3,9] <= 0
 drop_at_cell_0_3_4_0: - 3000 x[0,3,4,0] + d[0,3,4,0] <= 0
 drop_at_cell_0_3_4_1: - 3000 x[0,3,4,1] + d[0,3,4,1] <= 0
 drop_at_cell_0_3_4_2: - 3000 x[0,3,4,2] + d[0,3,4,2] <= 0
 drop_at_cell_0_3_4_3: - 3000 x[0,3,4,3] + d[0,3,4,3] <= 0
 drop_at_cell_0_3_4_4: - 3000 x[0,3,4,4] + d[0,3,4,4] <= 0
 drop_at_cell_0_3_4_5: - 3000 x[0,3,4,5] + d[0,3,4,5] <= 0
 drop_at_cell_0_3_4_6: - 3000 x[0,3,4,6] + d[0,3,4,6] <= 0
 drop_at_cell_0_3_4_7: - 3000 x[0,3,4,7] + d[0,3,4,7] <= 0
 drop_at_cell_0_3_4_8: - 3000 x[0,3,4,8] + d[0,3,4,8] <= 0
 drop_at_cell_0_3_4_9: - 3000 x[0,3,4,9] + d[0,3,4,9] <= 0
 drop_at_cell_0_4_0_0: - 3000 x[0,4,0,0] + d[0,4,0,0] <= 0
 drop_at_cell_0_4_0_1: - 3000 x[0,4,0,1] + d[0,4,0,1] <= 0
 drop_at_cell_0_4_0_2: - 3000 x[0,4,0,2] + d[0,4,0,2] <= 0
 drop_at_cell_0_4_0_3: - 3000 x[0,4,0,3] + d[0,4,0,3] <= 0
 drop_at_cell_0_4_0_4: - 3000 x[0,4,0,4] + d[0,4,0,4] <= 0
 drop_at_cell_0_4_0_5: - 3000 x[0,4,0,5] + d[0,4,0,5] <= 0
 drop_at_cell_0_4_0_6: - 3000 x[0,4,0,6] + d[0,4,0,6] <= 0
 drop_at_cell_0_4_0_7: - 3000 x[0,4,0,7] + d[0,4,0,7] <= 0
 drop_at_cell_0_4_0_8: - 3000 x[0,4,0,8] + d[0,4,0,8] <= 0
 drop_at_cell_0_4_0_9: - 3000 x[0,4,0,9] + d[0,4,0,9] <= 0
 drop_at_cell_0_4_1_0: - 3000 x[0,4,1,0] + d[0,4,1,0] <= 0
 drop_at_cell_0_4_1_1: - 3000 x[0,4,1,1] + d[0,4,1,1] <= 0
 drop_at_cell_0_4_1_2: - 3000 x[0,4,1,2] + d[0,4,1,2] <= 0
 drop_at_cell_0_4_1_3: - 3000 x[0,4,1,3] + d[0,4,1,3] <= 0
 drop_at_cell_0_4_1_4: - 3000 x[0,4,1,4] + d[0,4,1,4] <= 0
 drop_at_cell_0_4_1_5: - 3000 x[0,4,1,5] + d[0,4,1,5] <= 0
 drop_at_cell_0_4_1_6: - 3000 x[0,4,1,6] + d[0,4,1,6] <= 0
 drop_at_cell_0_4_1_7: - 3000 x[0,4,1,7] + d[0,4,1,7] <= 0
 drop_at_cell_0_4_1_8: - 3000 x[0,4,1,8] + d[0,4,1,8] <= 0
 drop_at_cell_0_4_1_9: - 3000 x[0,4,1,9] + d[0,4,1,9] <= 0
 drop_at_cell_0_4_2_0: - 3000 x[0,4,2,0] + d[0,4,2,0] <= 0
 drop_at_cell_0_4_2_1: - 3000 x[0,4,2,1] + d[0,4,2,1] <= 0
 drop_at_cell_0_4_2_2: - 3000 x[0,4,2,2] + d[0,4,2,2] <= 0
 drop_at_cell_0_4_2_3: - 3000 x[0,4,2,3] + d[0,4,2,3] <= 0
 drop_at_cell_0_4_2_4: - 3000 x[0,4,2,4] + d[0,4,2,4] <= 0
 drop_at_cell_0_4_2_5: - 3000 x[0,4,2,5] + d[0,4,2,5] <= 0
 drop_at_cell_0_4_2_6: - 3000 x[0,4,2,6] + d[0,4,2,6] <= 0
 drop_at_cell_0_4_2_7: - 3000 x[0,4,2,7] + d[0,4,2,7] <= 0
 drop_at_cell_0_4_2_8: - 3000 x[0,4,2,8] + d[0,4,2,8] <= 0
 drop_at_cell_0_4_2_9: - 3000 x[0,4,2,9] + d[0,4,2,9] <= 0
 drop_at_cell_0_4_3_0: - 3000 x[0,4,3,0] + d[0,4,3,0] <= 0
 drop_at_cell_0_4_3_1: - 3000 x[0,4,3,1] + d[0,4,3,1] <= 0
 drop_at_cell_0_4_3_2: - 3000 x[0,4,3,2] + d[0,4,3,2] <= 0
 drop_at_cell_0_4_3_3: - 3000 x[0,4,3,3] + d[0,4,3,3] <= 0
 drop_at_cell_0_4_3_4: - 3000 x[0,4,3,4] + d[0,4,3,4] <= 0
 drop_at_cell_0_4_3_5: - 3000 x[0,4,3,5] + d[0,4,3,5] <= 0
 drop_at_cell_0_4_3_6: - 3000 x[0,4,3,6] + d[0,4,3,6] <= 0
 drop_at_cell_0_4_3_7: - 3000 x[0,4,3,7] + d[0,4,3,7] <= 0
 drop_at_cell_0_4_3_8: - 3000 x[0,4,3,8] + d[0,4,3,8] <= 0
 drop_at_cell_0_4_3_9: - 3000 x[0,4,3,9] + d[0,4,3,9] <= 0
 drop_at_cell_0_4_4_0: - 3000 x[0,4,4,0] + d[0,4,4,0] <= 0
 drop_at_cell_0_4_4_1: - 3000 x[0,4,4,1] + d[0,4,4,1] <= 0
 drop_at_cell_0_4_4_2: - 3000 x[0,4,4,2] + d[0,4,4,2] <= 0
 drop_at_cell_0_4_4_3: - 3000 x[0,4,4,3] + d[0,4,4,3] <= 0
 drop_at_cell_0_4_4_4: - 3000 x[0,4,4,4] + d[0,4,4,4] <= 0
 drop_at_cell_0_4_4_5: - 3000 x[0,4,4,5] + d[0,4,4,5] <= 0
 drop_at_cell_0_4_4_6: - 3000 x[0,4,4,6] + d[0,4,4,6] <= 0
 drop_at_cell_0_4_4_7: - 3000 x[0,4,4,7] + d[0,4,4,7] <= 0
 drop_at_cell_0_4_4_8: - 3000 x[0,4,4,8] + d[0,4,4,8] <= 0
 drop_at_cell_0_4_4_9: - 3000 x[0,4,4,9] + d[0,4,4,9] <= 0
 drop_at_cell_1_0_0_0: - 1000 x[1,0,0,0] + d[1,0,0,0] <= 0
 drop_at_cell_1_0_0_1: - 1000 x[1,0,0,1] + d[1,0,0,1] <= 0
 drop_at_cell_1_0_0_2: - 1000 x[1,0,0,2] + d[1,0,0,2] <= 0
 drop_at_cell_1_0_0_3: - 1000 x[1,0,0,3] + d[1,0,0,3] <= 0
 drop_at_cell_1_0_0_4: - 1000 x[1,0,0,4] + d[1,0,0,4] <= 0
 drop_at_cell_1_0_0_5: - 1000 x[1,0,0,5] + d[1,0,0,5] <= 0
 drop_at_cell_1_0_0_6: - 1000 x[1,0,0,6] + d[1,0,0,6] <= 0
 drop_at_cell_1_0_0_7: - 1000 x[1,0,0,7] + d[1,0,0,7] <= 0
 drop_at_cell_1_0_0_8: - 1000 x[1,0,0,8] + d[1,0,0,8] <= 0
 drop_at_cell_1_0_0_9: - 1000 x[1,0,0,9] + d[1,0,0,9] <= 0
 drop_at_cell_1_0_1_0: - 1000 x[1,0,1,0] + d[1,0,1,0] <= 0
 drop_at_cell_1_0_1_1: - 1000 x[1,0,1,1] + d[1,0,1,1] <= 0
 drop_at_cell_1_0_1_2: - 1000 x[1,0,1,2] + d[1,0,1,2] <= 0
 drop_at_cell_1_0_1_3: - 1000 x[1,0,1,3] + d[1,0,1,3] <= 0
 drop_at_cell_1_0_1_4: - 1000 x[1,0,1,4] + d[1,0,1,4] <= 0
 drop_at_cell_1_0_1_5: - 1000 x[1,0,1,5] + d[1,0,1,5] <= 0
 drop_at_cell_1_0_1_6: - 1000 x[1,0,1,6] + d[1,0,1,6] <= 0
 drop_at_cell_1_0_1_7: - 1000 x[1,0,1,7] + d[1,0,1,7] <= 0
 drop_at_cell_1_0_1_8: - 1000 x[1,0,1,8] + d[1,0,1,8] <= 0
 drop_at_cell_1_0_1_9: - 1000 x[1,0,1,9] + d[1,0,1,9] <= 0
 drop_at_cell_1_0_2_0: - 1000 x[1,0,2,0] + d[1,0,2,0] <= 0
 drop_at_cell_1_0_2_1: - 1000 x[1,0,2,1] + d[1,0,2,1] <= 0
 drop_at_cell_1_0_2_2: - 1000 x[1,0,2,2] + d[1,0,2,2] <= 0
 drop_at_cell_1_0_2_3: - 1000 x[1,0,2,3] + d[1,0,2,3] <= 0
 drop_at_cell_1_0_2_4: - 1000 x[1,0,2,4] + d[1,0,2,4] <= 0
 drop_at_cell_1_0_2_5: - 1000 x[1,0,2,5] + d[1,0,2,5] <= 0
 drop_at_cell_1_0_2_6: - 1000 x[1,0,2,6] + d[1,0,2,6] <= 0
 drop_at_cell_1_0_2_7: - 1000 x[1,0,2,7] + d[1,0,2,7] <= 0
 drop_at_cell_1_0_2_8: - 1000 x[1,0,2,8] + d[1,0,2,8] <= 0
 drop_at_cell_1_0_2_9: - 1000 x[1,0,2,9] + d[1,0,2,9] <= 0
 drop_at_cell_1_0_3_0: - 1000 x[1,0,3,0] + d[1,0,3,0] <= 0
 drop_at_cell_1_0_3_1: - 1000 x[1,0,3,1] + d[1,0,3,1] <= 0
 drop_at_cell_1_0_3_2: - 1000 x[1,0,3,2] + d[1,0,3,2] <= 0
 drop_at_cell_1_0_3_3: - 1000 x[1,0,3,3] + d[1,0,3,3] <= 0
 drop_at_cell_1_0_3_4: - 1000 x[1,0,3,4] + d[1,0,3,4] <= 0
 drop_at_cell_1_0_3_5: - 1000 x[1,0,3,5] + d[1,0,3,5] <= 0
 drop_at_cell_1_0_3_6: - 1000 x[1,0,3,6] + d[1,0,3,6] <= 0
 drop_at_cell_1_0_3_7: - 1000 x[1,0,3,7] + d[1,0,3,7] <= 0
 drop_at_cell_1_0_3_8: - 1000 x[1,0,3,8] + d[1,0,3,8] <= 0
 drop_at_cell_1_0_3_9: - 1000 x[1,0,3,9] + d[1,0,3,9] <= 0
 drop_at_cell_1_0_4_0: - 1000 x[1,0,4,0] + d[1,0,4,0] <= 0
 drop_at_cell_1_0_4_1: - 1000 x[1,0,4,1] + d[1,0,4,1] <= 0
 drop_at_cell_1_0_4_2: - 1000 x[1,0,4,2] + d[1,0,4,2] <= 0
 drop_at_cell_1_0_4_3: - 1000 x[1,0,4,3] + d[1,0,4,3] <= 0
 drop_at_cell_1_0_4_4: - 1000 x[1,0,4,4] + d[1,0,4,4] <= 0
 drop_at_cell_1_0_4_5: - 1000 x[1,0,4,5] + d[1,0,4,5] <= 0
 drop_at_cell_1_0_4_6: - 1000 x[1,0,4,6] + d[1,0,4,6] <= 0
 drop_at_cell_1_0_4_7: - 1000 x[1,0,4,7] + d[1,0,4,7] <= 0
 drop_at_cell_1_0_4_8: - 1000 x[1,0,4,8] + d[1,0,4,8] <= 0
 drop_at_cell_1_0_4_9: - 1000 x[1,0,4,9] + d[1,0,4,9] <= 0
 drop_at_cell_1_1_0_0: - 1000 x[1,1,0,0] + d[1,1,0,0] <= 0
 drop_at_cell_1_1_0_1: - 1000 x[1,1,0,1] + d[1,1,0,1] <= 0
 drop_at_cell_1_1_0_2: - 1000 x[1,1,0,2] + d[1,1,0,2] <= 0
 drop_at_cell_1_1_0_3: - 1000 x[1,1,0,3] + d[1,1,0,3] <= 0
 drop_at_cell_1_1_0_4: - 1000 x[1,1,0,4] + d[1,1,0,4] <= 0
 drop_at_cell_1_1_0_5: - 1000 x[1,1,0,5] + d[1,1,0,5] <= 0
 drop_at_cell_1_1_0_6: - 1000 x[1,1,0,6] + d[1,1,0,6] <= 0
 drop_at_cell_1_1_0_7: - 1000 x[1,1,0,7] + d[1,1,0,7] <= 0
 drop_at_cell_1_1_0_8: - 1000 x[1,1,0,8] + d[1,1,0,8] <= 0
 drop_at_cell_1_1_0_9: - 1000 x[1,1,0,9] + d[1,1,0,9] <= 0
 drop_at_cell_1_1_1_0: - 1000 x[1,1,1,0] + d[1,1,1,0] <= 0
 drop_at_cell_1_1_1_1: - 1000 x[1,1,1,1] + d[1,1,1,1] <= 0
 drop_at_cell_1_1_1_2: - 1000 x[1,1,1,2] + d[1,1,1,2] <= 0
 drop_at_cell_1_1_1_3: - 1000 x[1,1,1,3] + d[1,1,1,3] <= 0
 drop_at_cell_1_1_1_4: - 1000 x[1,1,1,4] + d[1,1,1,4] <= 0
 drop_at_cell_1_1_1_5: - 1000 x[1,1,1,5] + d[1,1,1,5] <= 0
 drop_at_cell_1_1_1_6: - 1000 x[1,1,1,6] + d[1,1,1,6] <= 0
 drop_at_cell_1_1_1_7: - 1000 x[1,1,1,7] + d[1,1,1,7] <= 0
 drop_at_cell_1_1_1_8: - 1000 x[1,1,1,8] + d[1,1,1,8] <= 0
 drop_at_cell_1_1_1_9: - 1000 x[1,1,1,9] + d[1,1,1,9] <= 0
 drop_at_cell_1_1_2_0: - 1000 x[1,1,2,0] + d[1,1,2,0] <= 0
 drop_at_cell_1_1_2_1: - 1000 x[1,1,2,1] + d[1,1,2,1] <= 0
 drop_at_cell_1_1_2_2: - 1000 x[1,1,2,2] + d[1,1,2,2] <= 0
 drop_at_cell_1_1_2_3: - 1000 x[1,1,2,3] + d[1,1,2,3] <= 0
 drop_at_cell_1_1_2_4: - 1000 x[1,1,2,4] + d[1,1,2,4] <= 0
 drop_at_cell_1_1_2_5: - 1000 x[1,1,2,5] + d[1,1,2,5] <= 0
 drop_at_cell_1_1_2_6: - 1000 x[1,1,2,6] + d[1,1,2,6] <= 0
 drop_at_cell_1_1_2_7: - 1000 x[1,1,2,7] + d[1,1,2,7] <= 0
 drop_at_cell_1_1_2_8: - 1000 x[1,1,2,8] + d[1,1,2,8] <= 0
 drop_at_cell_1_1_2_9: - 1000 x[1,1,2,9] + d[1,1,2,9] <= 0
 drop_at_cell_1_1_3_0: - 1000 x[1,1,3,0] + d[1,1,3,0] <= 0
 drop_at_cell_1_1_3_1: - 1000 x[1,1,3,1] + d[1,1,3,1] <= 0
 drop_at_cell_1_1_3_2: - 1000 x[1,1,3,2] + d[1,1,3,2] <= 0
 drop_at_cell_1_1_3_3: - 1000 x[1,1,3,3] + d[1,1,3,3] <= 0
 drop_at_cell_1_1_3_4: - 1000 x[1,1,3,4] + d[1,1,3,4] <= 0
 drop_at_cell_1_1_3_5: - 1000 x[1,1,3,5] + d[1,1,3,5] <= 0
 drop_at_cell_1_1_3_6: - 1000 x[1,1,3,6] + d[1,1,3,6] <= 0
 drop_at_cell_1_1_3_7: - 1000 x[1,1,3,7] + d[1,1,3,7] <= 0
 drop_at_cell_1_1_3_8: - 1000 x[1,1,3,8] + d[1,1,3,8] <= 0
 drop_at_cell_1_1_3_9: - 1000 x[1,1,3,9] + d[1,1,3,9] <= 0
 drop_at_cell_1_1_4_0: - 1000 x[1,1,4,0] + d[1,1,4,0] <= 0
 drop_at_cell_1_1_4_1: - 1000 x[1,1,4,1] + d[1,1,4,1] <= 0
 drop_at_cell_1_1_4_2: - 1000 x[1,1,4,2] + d[1,1,4,2] <= 0
 drop_at_cell_1_1_4_3: - 1000 x[1,1,4,3] + d[1,1,4,3] <= 0
 drop_at_cell_1_1_4_4: - 1000 x[1,1,4,4] + d[1,1,4,4] <= 0
 drop_at_cell_1_1_4_5: - 1000 x[1,1,4,5] + d[1,1,4,5] <= 0
 drop_at_cell_1_1_4_6: - 1000 x[1,1,4,6] + d[1,1,4,6] <= 0
 drop_at_cell_1_1_4_7: - 1000 x[1,1,4,7] + d[1,1,4,7] <= 0
 drop_at_cell_1_1_4_8: - 1000 x[1,1,4,8] + d[1,1,4,8] <= 0
 drop_at_cell_1_1_4_9: - 1000 x[1,1,4,9] + d[1,1,4,9] <= 0
 drop_at_cell_1_2_0_0: - 1000 x[1,2,0,0] + d[1,2,0,0] <= 0
 drop_at_cell_1_2_0_1: - 1000 x[1,2,0,1] + d[1,2,0,1] <= 0
 drop_at_cell_1_2_0_2: - 1000 x[1,2,0,2] + d[1,2,0,2] <= 0
 drop_at_cell_1_2_0_3: - 1000 x[1,2,0,3] + d[1,2,0,3] <= 0
 drop_at_cell_1_2_0_4: - 1000 x[1,2,0,4] + d[1,2,0,4] <= 0
 drop_at_cell_1_2_0_5: - 1000 x[1,2,0,5] + d[1,2,0,5] <= 0
 drop_at_cell_1_2_0_6: - 1000 x[1,2,0,6] + d[1,2,0,6] <= 0
 drop_at_cell_1_2_0_7: - 1000 x[1,2,0,7] + d[1,2,0,7] <= 0
 drop_at_cell_1_2_0_8: - 1000 x[1,2,0,8] + d[1,2,0,8] <= 0
 drop_at_cell_1_2_0_9: - 1000 x[1,2,0,9] + d[1,2,0,9] <= 0
 drop_at_cell_1_2_1_0: - 1000 x[1,2,1,0] + d[1,2,1,0] <= 0
 drop_at_cell_1_2_1_1: - 1000 x[1,2,1,1] + d[1,2,1,1] <= 0
 drop_at_cell_1_2_1_2: - 1000 x[1,2,1,2] + d[1,2,1,2] <= 0
 drop_at_cell_1_2_1_3: - 1000 x[1,2,1,3] + d[1,2,1,3] <= 0
 drop_at_cell_1_2_1_4: - 1000 x[1,2,1,4] + d[1,2,1,4] <= 0
 drop_at_cell_1_2_1_5: - 1000 x[1,2,1,5] + d[1,2,1,5] <= 0
 drop_at_cell_1_2_1_6: - 1000 x[1,2,1,6] + d[1,2,1,6] <= 0
 drop_at_cell_1_2_1_7: - 1000 x[1,2,1,7] + d[1,2,1,7] <= 0
 drop_at_cell_1_2_1_8: - 1000 x[1,2,1,8] + d[1,2,1,8] <= 0
 drop_at_cell_1_2_1_9: - 1000 x[1,2,1,9] + d[1,2,1,9] <= 0
 drop_at_cell_1_2_2_0: - 1000 x[1,2,2,0] + d[1,2,2,0] <= 0
 drop_at_cell_1_2_2_1: - 1000 x[1,2,2,1] + d[1,2,2,1] <= 0
 drop_at_cell_1_2_2_2: - 1000 x[1,2,2,2] + d[1,2,2,2] <= 0
 drop_at_cell_1_2_2_3: - 1000 x[1,2,2,3] + d[1,2,2,3] <= 0
 drop_at_cell_1_2_2_4: - 1000 x[1,2,2,4] + d[1,2,2,4] <= 0
 drop_at_cell_1_2_2_5: - 1000 x[1,2,2,5] + d[1,2,2,5] <= 0
 drop_at_cell_1_2_2_6: - 1000 x[1,2,2,6] + d[1,2,2,6] <= 0
 drop_at_cell_1_2_2_7: - 1000 x[1,2,2,7] + d[1,2,2,7] <= 0
 drop_at_cell_1_2_2_8: - 1000 x[1,2,2,8] + d[1,2,2,8] <= 0
 drop_at_cell_1_2_2_9: - 1000 x[1,2,2,9] + d[1,2,2,9] <= 0
 drop_at_cell_1_2_3_0: - 1000 x[1,2,3,0] + d[1,2,3,0] <= 0
 drop_at_cell_1_2_3_1: - 1000 x[1,2,3,1] + d[1,2,3,1] <= 0
 drop_at_cell_1_2_3_2: - 1000 x[1,2,3,2] + d[1,2,3,2] <= 0
 drop_at_cell_1_2_3_3: - 1000 x[1,2,3,3] + d[1,2,3,3] <= 0
 drop_at_cell_1_2_3_4: - 1000 x[1,2,3,4] + d[1,2,3,4] <= 0
 drop_at_cell_1_2_3_5: - 1000 x[1,2,3,5] + d[1,2,3,5] <= 0
 drop_at_cell_1_2_3_6: - 1000 x[1,2,3,6] + d[1,2,3,6] <= 0
 drop_at_cell_1_2_3_7: - 1000 x[1,2,3,7] + d[1,2,3,7] <= 0
 drop_at_cell_1_2_3_8: - 1000 x[1,2,3,8] + d[1,2,3,8] <= 0
 drop_at_cell_1_2_3_9: - 1000 x[1,2,3,9] + d[1,2,3,9] <= 0
 drop_at_cell_1_2_4_0: - 1000 x[1,2,4,0] + d[1,2,4,0] <= 0
 drop_at_cell_1_2_4_1: - 1000 x[1,2,4,1] + d[1,2,4,1] <= 0
 drop_at_cell_1_2_4_2: - 1000 x[1,2,4,2] + d[1,2,4,2] <= 0
 drop_at_cell_1_2_4_3: - 1000 x[1,2,4,3] + d[1,2,4,3] <= 0
 drop_at_cell_1_2_4_4: - 1000 x[1,2,4,4] + d[1,2,4,4] <= 0
 drop_at_cell_1_2_4_5: - 1000 x[1,2,4,5] + d[1,2,4,5] <= 0
 drop_at_cell_1_2_4_6: - 1000 x[1,2,4,6] + d[1,2,4,6] <= 0
 drop_at_cell_1_2_4_7: - 1000 x[1,2,4,7] + d[1,2,4,7] <= 0
 drop_at_cell_1_2_4_8: - 1000 x[1,2,4,8] + d[1,2,4,8] <= 0
 drop_at_cell_1_2_4_9: - 1000 x[1,2,4,9] + d[1,2,4,9] <= 0
 drop_at_cell_1_3_0_0: - 1000 x[1,3,0,0] + d[1,3,0,0] <= 0
 drop_at_cell_1_3_0_1: - 1000 x[1,3,0,1] + d[1,3,0,1] <= 0
 drop_at_cell_1_3_0_2: - 1000 x[1,3,0,2] + d[1,3,0,2] <= 0
 drop_at_cell_1_3_0_3: - 1000 x[1,3,0,3] + d[1,3,0,3] <= 0
 drop_at_cell_1_3_0_4: - 1000 x[1,3,0,4] + d[1,3,0,4] <= 0
 drop_at_cell_1_3_0_5: - 1000 x[1,3,0,5] + d[1,3,0,5] <= 0
 drop_at_cell_1_3_0_6: - 1000 x[1,3,0,6] + d[1,3,0,6] <= 0
 drop_at_cell_1_3_0_7: - 1000 x[1,3,0,7] + d[1,3,0,7] <= 0
 drop_at_cell_1_3_0_8: - 1000 x[1,3,0,8] + d[1,3,0,8] <= 0
 drop_at_cell_1_3_0_9: - 1000 x[1,3,0,9] + d[1,3,0,9] <= 0
 drop_at_cell_1_3_1_0: - 1000 x[1,3,1,0] + d[1,3,1,0] <= 0
 drop_at_cell_1_3_1_1: - 1000 x[1,3,1,1] + d[1,3,1,1] <= 0
 drop_at_cell_1_3_1_2: - 1000 x[1,3,1,2] + d[1,3,1,2] <= 0
 drop_at_cell_1_3_1_3: - 1000 x[1,3,1,3] + d[1,3,1,3] <= 0
 drop_at_cell_1_3_1_4: - 1000 x[1,3,1,4] + d[1,3,1,4] <= 0
 drop_at_cell_1_3_1_5: - 1000 x[1,3,1,5] + d[1,3,1,5] <= 0
 drop_at_cell_1_3_1_6: - 1000 x[1,3,1,6] + d[1,3,1,6] <= 0
 drop_at_cell_1_3_1_7: - 1000 x[1,3,1,7] + d[1,3,1,7] <= 0
 drop_at_cell_1_3_1_8: - 1000 x[1,3,1,8] + d[1,3,1,8] <= 0
 drop_at_cell_1_3_1_9: - 1000 x[1,3,1,9] + d[1,3,1,9] <= 0
 drop_at_cell_1_3_2_0: - 1000 x[1,3,2,0] + d[1,3,2,0] <= 0
 drop_at_cell_1_3_2_1: - 1000 x[1,3,2,1] + d[1,3,2,1] <= 0
 drop_at_cell_1_3_2_2: - 1000 x[1,3,2,2] + d[1,3,2,2] <= 0
 drop_at_cell_1_3_2_3: - 1000 x[1,3,2,3] + d[1,3,2,3] <= 0
 drop_at_cell_1_3_2_4: - 1000 x[1,3,2,4] + d[1,3,2,4] <= 0
 drop_at_cell_1_3_2_5: - 1000 x[1,3,2,5] + d[1,3,2,5] <= 0
 drop_at_cell_1_3_2_6: - 1000 x[1,3,2,6] + d[1,3,2,6] <= 0
 drop_at_cell_1_3_2_7: - 1000 x[1,3,2,7] + d[1,3,2,7] <= 0
 drop_at_cell_1_3_2_8: - 1000 x[1,3,2,8] + d[1,3,2,8] <= 0
 drop_at_cell_1_3_2_9: - 1000 x[1,3,2,9] + d[1,3,2,9] <= 0
 drop_at_cell_1_3_3_0: - 1000 x[1,3,3,0] + d[1,3,3,0] <= 0
 drop_at_cell_1_3_3_1: - 1000 x[1,3,3,1] + d[1,3,3,1] <= 0
 drop_at_cell_1_3_3_2: - 1000 x[1,3,3,2] + d[1,3,3,2] <= 0
 drop_at_cell_1_3_3_3: - 1000 x[1,3,3,3] + d[1,3,3,3] <= 0
 drop_at_cell_1_3_3_4: - 1000 x[1,3,3,4] + d[1,3,3,4] <= 0
 drop_at_cell_1_3_3_5: - 1000 x[1,3,3,5] + d[1,3,3,5] <= 0
 drop_at_cell_1_3_3_6: - 1000 x[1,3,3,6] + d[1,3,3,6] <= 0
 drop_at_cell_1_3_3_7: - 1000 x[1,3,3,7] + d[1,3,3,7] <= 0
 drop_at_cell_1_3_3_8: - 1000 x[1,3,3,8] + d[1,3,3,8] <= 0
 drop_at_cell_1_3_3_9: - 1000 x[1,3,3,9] + d[1,3,3,9] <= 0
 drop_at_cell_1_3_4_0: - 1000 x[1,3,4,0] + d[1,3,4,0] <= 0
 drop_at_cell_1_3_4_1: - 1000 x[1,3,4,1] + d[1,3,4,1] <= 0
 drop_at_cell_1_3_4_2: - 1000 x[1,3,4,2] + d[1,3,4,2] <= 0
 drop_at_cell_1_3_4_3: - 1000 x[1,3,4,3] + d[1,3,4,3] <= 0
 drop_at_cell_1_3_4_4: - 1000 x[1,3,4,4] + d[1,3,4,4] <= 0
 drop_at_cell_1_3_4_5: - 1000 x[1,3,4,5] + d[1,3,4,5] <= 0
 drop_at_cell_1_3_4_6: - 1000 x[1,3,4,6] + d[1,3,4,6] <= 0
 drop_at_cell_1_3_4_7: - 1000 x[1,3,4,7] + d[1,3,4,7] <= 0
 drop_at_cell_1_3_4_8: - 1000 x[1,3,4,8] + d[1,3,4,8] <= 0
 drop_at_cell_1_3_4_9: - 1000 x[1,3,4,9] + d[1,3,4,9] <= 0
 drop_at_cell_1_4_0_0: - 1000 x[1,4,0,0] + d[1,4,0,0] <= 0
 drop_at_cell_1_4_0_1: - 1000 x[1,4,0,1] + d[1,4,0,1] <= 0
 drop_at_cell_1_4_0_2: - 1000 x[1,4,0,2] + d[1,4,0,2] <= 0
 drop_at_cell_1_4_0_3: - 1000 x[1,4,0,3] + d[1,4,0,3] <= 0
 drop_at_cell_1_4_0_4: - 1000 x[1,4,0,4] + d[1,4,0,4] <= 0
 drop_at_cell_1_4_0_5: - 1000 x[1,4,0,5] + d[1,4,0,5] <= 0
 drop_at_cell_1_4_0_6: - 1000 x[1,4,0,6] + d[1,4,0,6] <= 0
 drop_at_cell_1_4_0_7: - 1000 x[1,4,0,7] + d[1,4,0,7] <= 0
 drop_at_cell_1_4_0_8: - 1000 x[1,4,0,8] + d[1,4,0,8] <= 0
 drop_at_cell_1_4_0_9: - 1000 x[1,4,0,9] + d[1,4,0,9] <= 0
 drop_at_cell_1_4_1_0: - 1000 x[1,4,1,0] + d[1,4,1,0] <= 0
 drop_at_cell_1_4_1_1: - 1000 x[1,4,1,1] + d[1,4,1,1] <= 0
 drop_at_cell_1_4_1_2: - 1000 x[1,4,1,2] + d[1,4,1,2] <= 0
 drop_at_cell_1_4_1_3: - 1000 x[1,4,1,3] + d[1,4,1,3] <= 0
 drop_at_cell_1_4_1_4: - 1000 x[1,4,1,4] + d[1,4,1,4] <= 0
 drop_at_cell_1_4_1_5: - 1000 x[1,4,1,5] + d[1,4,1,5] <= 0
 drop_at_cell_1_4_1_6: - 1000 x[1,4,1,6] + d[1,4,1,6] <= 0
 drop_at_cell_1_4_1_7: - 1000 x[1,4,1,7] + d[1,4,1,7] <= 0
 drop_at_cell_1_4_1_8: - 1000 x[1,4,1,8] + d[1,4,1,8] <= 0
 drop_at_cell_1_4_1_9: - 1000 x[1,4,1,9] + d[1,4,1,9] <= 0
 drop_at_cell_1_4_2_0: - 1000 x[1,4,2,0] + d[1,4,2,0] <= 0
 drop_at_cell_1_4_2_1: - 1000 x[1,4,2,1] + d[1,4,2,1] <= 0
 drop_at_cell_1_4_2_2: - 1000 x[1,4,2,2] + d[1,4,2,2] <= 0
 drop_at_cell_1_4_2_3: - 1000 x[1,4,2,3] + d[1,4,2,3] <= 0
 drop_at_cell_1_4_2_4: - 1000 x[1,4,2,4] + d[1,4,2,4] <= 0
 drop_at_cell_1_4_2_5: - 1000 x[1,4,2,5] + d[1,4,2,5] <= 0
 drop_at_cell_1_4_2_6: - 1000 x[1,4,2,6] + d[1,4,2,6] <= 0
 drop_at_cell_1_4_2_7: - 1000 x[1,4,2,7] + d[1,4,2,7] <= 0
 drop_at_cell_1_4_2_8: - 1000 x[1,4,2,8] + d[1,4,2,8] <= 0
 drop_at_cell_1_4_2_9: - 1000 x[1,4,2,9] + d[1,4,2,9] <= 0
 drop_at_cell_1_4_3_0: - 1000 x[1,4,3,0] + d[1,4,3,0] <= 0
 drop_at_cell_1_4_3_1: - 1000 x[1,4,3,1] + d[1,4,3,1] <= 0
 drop_at_cell_1_4_3_2: - 1000 x[1,4,3,2] + d[1,4,3,2] <= 0
 drop_at_cell_1_4_3_3: - 1000 x[1,4,3,3] + d[1,4,3,3] <= 0
 drop_at_cell_1_4_3_4: - 1000 x[1,4,3,4] + d[1,4,3,4] <= 0
 drop_at_cell_1_4_3_5: - 1000 x[1,4,3,5] + d[1,4,3,5] <= 0
 drop_at_cell_1_4_3_6: - 1000 x[1,4,3,6] + d[1,4,3,6] <= 0
 drop_at_cell_1_4_3_7: - 1000 x[1,4,3,7] + d[1,4,3,7] <= 0
 drop_at_cell_1_4_3_8: - 1000 x[1,4,3,8] + d[1,4,3,8] <= 0
 drop_at_cell_1_4_3_9: - 1000 x[1,4,3,9] + d[1,4,3,9] <= 0
 drop_at_cell_1_4_4_0: - 1000 x[1,4,4,0] + d[1,4,4,0] <= 0
 drop_at_cell_1_4_4_1: - 1000 x[1,4,4,1] + d[1,4,4,1] <= 0
 drop_at_cell_1_4_4_2: - 1000 x[1,4,4,2] + d[1,4,4,2] <= 0
 drop_at_cell_1_4_4_3: - 1000 x[1,4,4,3] + d[1,4,4,3] <= 0
 drop_at_cell_1_4_4_4: - 1000 x[1,4,4,4] + d[1,4,4,4] <= 0
 drop_at_cell_1_4_4_5: - 1000 x[1,4,4,5] + d[1,4,4,5] <= 0
 drop_at_cell_1_4_4_6: - 1000 x[1,4,4,6] + d[1,4,4,6] <= 0
 drop_at_cell_1_4_4_7: - 1000 x[1,4,4,7] + d[1,4,4,7] <= 0
 drop_at_cell_1_4_4_8: - 1000 x[1,4,4,8] + d[1,4,4,8] <= 0
 drop_at_cell_1_4_4_9: - 1000 x[1,4,4,9] + d[1,4,4,9] <= 0
 drop_at_cell_2_0_0_0: - 1000 x[2,0,0,0] + d[2,0,0,0] <= 0
 drop_at_cell_2_0_0_1: - 1000 x[2,0,0,1] + d[2,0,0,1] <= 0
 drop_at_cell_2_0_0_2: - 1000 x[2,0,0,2] + d[2,0,0,2] <= 0
 drop_at_cell_2_0_0_3: - 1000 x[2,0,0,3] + d[2,0,0,3] <= 0
 drop_at_cell_2_0_0_4: - 1000 x[2,0,0,4] + d[2,0,0,4] <= 0
 drop_at_cell_2_0_0_5: - 1000 x[2,0,0,5] + d[2,0,0,5] <= 0
 drop_at_cell_2_0_0_6: - 1000 x[2,0,0,6] + d[2,0,0,6] <= 0
 drop_at_cell_2_0_0_7: - 1000 x[2,0,0,7] + d[2,0,0,7] <= 0
 drop_at_cell_2_0_0_8: - 1000 x[2,0,0,8] + d[2,0,0,8] <= 0
 drop_at_cell_2_0_0_9: - 1000 x[2,0,0,9] + d[2,0,0,9] <= 0
 drop_at_cell_2_0_1_0: - 1000 x[2,0,1,0] + d[2,0,1,0] <= 0
 drop_at_cell_2_0_1_1: - 1000 x[2,0,1,1] + d[2,0,1,1] <= 0
 drop_at_cell_2_0_1_2: - 1000 x[2,0,1,2] + d[2,0,1,2] <= 0
 drop_at_cell_2_0_1_3: - 1000 x[2,0,1,3] + d[2,0,1,3] <= 0
 drop_at_cell_2_0_1_4: - 1000 x[2,0,1,4] + d[2,0,1,4] <= 0
 drop_at_cell_2_0_1_5: - 1000 x[2,0,1,5] + d[2,0,1,5] <= 0
 drop_at_cell_2_0_1_6: - 1000 x[2,0,1,6] + d[2,0,1,6] <= 0
 drop_at_cell_2_0_1_7: - 1000 x[2,0,1,7] + d[2,0,1,7] <= 0
 drop_at_cell_2_0_1_8: - 1000 x[2,0,1,8] + d[2,0,1,8] <= 0
 drop_at_cell_2_0_1_9: - 1000 x[2,0,1,9] + d[2,0,1,9] <= 0
 drop_at_cell_2_0_2_0: - 1000 x[2,0,2,0] + d[2,0,2,0] <= 0
 drop_at_cell_2_0_2_1: - 1000 x[2,0,2,1] + d[2,0,2,1] <= 0
 drop_at_cell_2_0_2_2: - 1000 x[2,0,2,2] + d[2,0,2,2] <= 0
 drop_at_cell_2_0_2_3: - 1000 x[2,0,2,3] + d[2,0,2,3] <= 0
 drop_at_cell_2_0_2_4: - 1000 x[2,0,2,4] + d[2,0,2,4] <= 0
 drop_at_cell_2_0_2_5: - 1000 x[2,0,2,5] + d[2,0,2,5] <= 0
 drop_at_cell_2_0_2_6: - 1000 x[2,0,2,6] + d[2,0,2,6] <= 0
 drop_at_cell_2_0_2_7: - 1000 x[2,0,2,7] + d[2,0,2,7] <= 0
 drop_at_cell_2_0_2_8: - 1000 x[2,0,2,8] + d[2,0,2,8] <= 0
 drop_at_cell_2_0_2_9: - 1000 x[2,0,2,9] + d[2,0,2,9] <= 0
 drop_at_cell_2_0_3_0: - 1000 x[2,0,3,0] + d[2,0,3,0] <= 0
 drop_at_cell_2_0_3_1: - 1000 x[2,0,3,1] + d[2,0,3,1] <= 0
 drop_at_cell_2_0_3_2: - 1000 x[2,0,3,2] + d[2,0,3,2] <= 0
 drop_at_cell_2_0_3_3: - 1000 x[2,0,3,3] + d[2,0,3,3] <= 0
 drop_at_cell_2_0_3_4: - 1000 x[2,0,3,4] + d[2,0,3,4] <= 0
 drop_at_cell_2_0_3_5: - 1000 x[2,0,3,5] + d[2,0,3,5] <= 0
 drop_at_cell_2_0_3_6: - 1000 x[2,0,3,6] + d[2,0,3,6] <= 0
 drop_at_cell_2_0_3_7: - 1000 x[2,0,3,7] + d[2,0,3,7] <= 0
 drop_at_cell_2_0_3_8: - 1000 x[2,0,3,8] + d[2,0,3,8] <= 0
 drop_at_cell_2_0_3_9: - 1000 x[2,0,3,9] + d[2,0,3,9] <= 0
 drop_at_cell_2_0_4_0: - 1000 x[2,0,4,0] + d[2,0,4,0] <= 0
 drop_at_cell_2_0_4_1: - 1000 x[2,0,4,1] + d[2,0,4,1] <= 0
 drop_at_cell_2_0_4_2: - 1000 x[2,0,4,2] + d[2,0,4,2] <= 0
 drop_at_cell_2_0_4_3: - 1000 x[2,0,4,3] + d[2,0,4,3] <= 0
 drop_at_cell_2_0_4_4: - 1000 x[2,0,4,4] + d[2,0,4,4] <= 0
 drop_at_cell_2_0_4_5: - 1000 x[2,0,4,5] + d[2,0,4,5] <= 0
 drop_at_cell_2_0_4_6: - 1000 x[2,0,4,6] + d[2,0,4,6] <= 0
 drop_at_cell_2_0_4_7: - 1000 x[2,0,4,7] + d[2,0,4,7] <= 0
 drop_at_cell_2_0_4_8: - 1000 x[2,0,4,8] + d[2,0,4,8] <= 0
 drop_at_cell_2_0_4_9: - 1000 x[2,0,4,9] + d[2,0,4,9] <= 0
 drop_at_cell_2_1_0_0: - 1000 x[2,1,0,0] + d[2,1,0,0] <= 0
 drop_at_cell_2_1_0_1: - 1000 x[2,1,0,1] + d[2,1,0,1] <= 0
 drop_at_cell_2_1_0_2: - 1000 x[2,1,0,2] + d[2,1,0,2] <= 0
 drop_at_cell_2_1_0_3: - 1000 x[2,1,0,3] + d[2,1,0,3] <= 0
 drop_at_cell_2_1_0_4: - 1000 x[2,1,0,4] + d[2,1,0,4] <= 0
 drop_at_cell_2_1_0_5: - 1000 x[2,1,0,5] + d[2,1,0,5] <= 0
 drop_at_cell_2_1_0_6: - 1000 x[2,1,0,6] + d[2,1,0,6] <= 0
 drop_at_cell_2_1_0_7: - 1000 x[2,1,0,7] + d[2,1,0,7] <= 0
 drop_at_cell_2_1_0_8: - 1000 x[2,1,0,8] + d[2,1,0,8] <= 0
 drop_at_cell_2_1_0_9: - 1000 x[2,1,0,9] + d[2,1,0,9] <= 0
 drop_at_cell_2_1_1_0: - 1000 x[2,1,1,0] + d[2,1,1,0] <= 0
 drop_at_cell_2_1_1_1: - 1000 x[2,1,1,1] + d[2,1,1,1] <= 0
 drop_at_cell_2_1_1_2: - 1000 x[2,1,1,2] + d[2,1,1,2] <= 0
 drop_at_cell_2_1_1_3: - 1000 x[2,1,1,3] + d[2,1,1,3] <= 0
 drop_at_cell_2_1_1_4: - 1000 x[2,1,1,4] + d[2,1,1,4] <= 0
 drop_at_cell_2_1_1_5: - 1000 x[2,1,1,5] + d[2,1,1,5] <= 0
 drop_at_cell_2_1_1_6: - 1000 x[2,1,1,6] + d[2,1,1,6] <= 0
 drop_at_cell_2_1_1_7: - 1000 x[2,1,1,7] + d[2,1,1,7] <= 0
 drop_at_cell_2_1_1_8: - 1000 x[2,1,1,8] + d[2,1,1,8] <= 0
 drop_at_cell_2_1_1_9: - 1000 x[2,1,1,9] + d[2,1,1,9] <= 0
 drop_at_cell_2_1_2_0: - 1000 x[2,1,2,0] + d[2,1,2,0] <= 0
 drop_at_cell_2_1_2_1: - 1000 x[2,1,2,1] + d[2,1,2,1] <= 0
 drop_at_cell_2_1_2_2: - 1000 x[2,1,2,2] + d[2,1,2,2] <= 0
 drop_at_cell_2_1_2_3: - 1000 x[2,1,2,3] + d[2,1,2,3] <= 0
 drop_at_cell_2_1_2_4: - 1000 x[2,1,2,4] + d[2,1,2,4] <= 0
 drop_at_cell_2_1_2_5: - 1000 x[2,1,2,5] + d[2,1,2,5] <= 0
 drop_at_cell_2_1_2_6: - 1000 x[2,1,2,6] + d[2,1,2,6] <= 0
 drop_at_cell_2_1_2_7: - 1000 x[2,1,2,7] + d[2,1,2,7] <= 0
 drop_at_cell_2_1_2_8: - 1000 x[2,1,2,8] + d[2,1,2,8] <= 0
 drop_at_cell_2_1_2_9: - 1000 x[2,1,2,9] + d[2,1,2,9] <= 0
 drop_at_cell_2_1_3_0: - 1000 x[2,1,3,0] + d[2,1,3,0] <= 0
 drop_at_cell_2_1_3_1: - 1000 x[2,1,3,1] + d[2,1,3,1] <= 0
 drop_at_cell_2_1_3_2: - 1000 x[2,1,3,2] + d[2,1,3,2] <= 0
 drop_at_cell_2_1_3_3: - 1000 x[2,1,3,3] + d[2,1,3,3] <= 0
 drop_at_cell_2_1_3_4: - 1000 x[2,1,3,4] + d[2,1,3,4] <= 0
 drop_at_cell_2_1_3_5: - 1000 x[2,1,3,5] + d[2,1,3,5] <= 0
 drop_at_cell_2_1_3_6: - 1000 x[2,1,3,6] + d[2,1,3,6] <= 0
 drop_at_cell_2_1_3_7: - 1000 x[2,1,3,7] + d[2,1,3,7] <= 0
 drop_at_cell_2_1_3_8: - 1000 x[2,1,3,8] + d[2,1,3,8] <= 0
 drop_at_cell_2_1_3_9: - 1000 x[2,1,3,9] + d[2,1,3,9] <= 0
 drop_at_cell_2_1_4_0: - 1000 x[2,1,4,0] + d[2,1,4,0] <= 0
 drop_at_cell_2_1_4_1: - 1000 x[2,1,4,1] + d[2,1,4,1] <= 0
 drop_at_cell_2_1_4_2: - 1000 x[2,1,4,2] + d[2,1,4,2] <= 0
 drop_at_cell_2_1_4_3: - 1000 x[2,1,4,3] + d[2,1,4,3] <= 0
 drop_at_cell_2_1_4_4: - 1000 x[2,1,4,4] + d[2,1,4,4] <= 0
 drop_at_cell_2_1_4_5: - 1000 x[2,1,4,5] + d[2,1,4,5] <= 0
 drop_at_cell_2_1_4_6: - 1000 x[2,1,4,6] + d[2,1,4,6] <= 0
 drop_at_cell_2_1_4_7: - 1000 x[2,1,4,7] + d[2,1,4,7] <= 0
 drop_at_cell_2_1_4_8: - 1000 x[2,1,4,8] + d[2,1,4,8] <= 0
 drop_at_cell_2_1_4_9: - 1000 x[2,1,4,9] + d[2,1,4,9] <= 0
 drop_at_cell_2_2_0_0: - 1000 x[2,2,0,0] + d[2,2,0,0] <= 0
 drop_at_cell_2_2_0_1: - 1000 x[2,2,0,1] + d[2,2,0,1] <= 0
 drop_at_cell_2_2_0_2: - 1000 x[2,2,0,2] + d[2,2,0,2] <= 0
 drop_at_cell_2_2_0_3: - 1000 x[2,2,0,3] + d[2,2,0,3] <= 0
 drop_at_cell_2_2_0_4: - 1000 x[2,2,0,4] + d[2,2,0,4] <= 0
 drop_at_cell_2_2_0_5: - 1000 x[2,2,0,5] + d[2,2,0,5] <= 0
 drop_at_cell_2_2_0_6: - 1000 x[2,2,0,6] + d[2,2,0,6] <= 0
 drop_at_cell_2_2_0_7: - 1000 x[2,2,0,7] + d[2,2,0,7] <= 0
 drop_at_cell_2_2_0_8: - 1000 x[2,2,0,8] + d[2,2,0,8] <= 0
 drop_at_cell_2_2_0_9: - 1000 x[2,2,0,9] + d[2,2,0,9] <= 0
 drop_at_cell_2_2_1_0: - 1000 x[2,2,1,0] + d[2,2,1,0] <= 0
 drop_at_cell_2_2_1_1: - 1000 x[2,2,1,1] + d[2,2,1,1] <= 0
 drop_at_cell_2_2_1_2: - 1000 x[2,2,1,2] + d[2,2,1,2] <= 0
 drop_at_cell_2_2_1_3: - 1000 x[2,2,1,3] + d[2,2,1,3] <= 0
 drop_at_cell_2_2_1_4: - 1000 x[2,2,1,4] + d[2,2,1,4] <= 0
 drop_at_cell_2_2_1_5: - 1000 x[2,2,1,5] + d[2,2,1,5] <= 0
 drop_at_cell_2_2_1_6: - 1000 x[2,2,1,6] + d[2,2,1,6] <= 0
 drop_at_cell_2_2_1_7: - 1000 x[2,2,1,7] + d[2,2,1,7] <= 0
 drop_at_cell_2_2_1_8: - 1000 x[2,2,1,8] + d[2,2,1,8] <= 0
 drop_at_cell_2_2_1_9: - 1000 x[2,2,1,9] + d[2,2,1,9] <= 0
 drop_at_cell_2_2_2_0: - 1000 x[2,2,2,0] + d[2,2,2,0] <= 0
 drop_at_cell_2_2_2_1: - 1000 x[2,2,2,1] + d[2,2,2,1] <= 0
 drop_at_cell_2_2_2_2: - 1000 x[2,2,2,2] + d[2,2,2,2] <= 0
 drop_at_cell_2_2_2_3: - 1000 x[2,2,2,3] + d[2,2,2,3] <= 0
 drop_at_cell_2_2_2_4: - 1000 x[2,2,2,4] + d[2,2,2,4] <= 0
 drop_at_cell_2_2_2_5: - 1000 x[2,2,2,5] + d[2,2,2,5] <= 0
 drop_at_cell_2_2_2_6: - 1000 x[2,2,2,6] + d[2,2,2,6] <= 0
 drop_at_cell_2_2_2_7: - 1000 x[2,2,2,7] + d[2,2,2,7] <= 0
 drop_at_cell_2_2_2_8: - 1000 x[2,2,2,8] + d[2,2,2,8] <= 0
 drop_at_cell_2_2_2_9: - 1000 x[2,2,2,9] + d[2,2,2,9] <= 0
 drop_at_cell_2_2_3_0: - 1000 x[2,2,3,0] + d[2,2,3,0] <= 0
 drop_at_cell_2_2_3_1: - 1000 x[2,2,3,1] + d[2,2,3,1] <= 0
 drop_at_cell_2_2_3_2: - 1000 x[2,2,3,2] + d[2,2,3,2] <= 0
 drop_at_cell_2_2_3_3: - 1000 x[2,2,3,3] + d[2,2,3,3] <= 0
 drop_at_cell_2_2_3_4: - 1000 x[2,2,3,4] + d[2,2,3,4] <= 0
 drop_at_cell_2_2_3_5: - 1000 x[2,2,3,5] + d[2,2,3,5] <= 0
 drop_at_cell_2_2_3_6: - 1000 x[2,2,3,6] + d[2,2,3,6] <= 0
 drop_at_cell_2_2_3_7: - 1000 x[2,2,3,7] + d[2,2,3,7] <= 0
 drop_at_cell_2_2_3_8: - 1000 x[2,2,3,8] + d[2,2,3,8] <= 0
 drop_at_cell_2_2_3_9: - 1000 x[2,2,3,9] + d[2,2,3,9] <= 0
 drop_at_cell_2_2_4_0: - 1000 x[2,2,4,0] + d[2,2,4,0] <= 0
 drop_at_cell_2_2_4_1: - 1000 x[2,2,4,1] + d[2,2,4,1] <= 0
 drop_at_cell_2_2_4_2: - 1000 x[2,2,4,2] + d[2,2,4,2] <= 0
 drop_at_cell_2_2_4_3: - 1000 x[2,2,4,3] + d[2,2,4,3] <= 0
 drop_at_cell_2_2_4_4: - 1000 x[2,2,4,4] + d[2,2,4,4] <= 0
 drop_at_cell_2_2_4_5: - 1000 x[2,2,4,5] + d[2,2,4,5] <= 0
 drop_at_cell_2_2_4_6: - 1000 x[2,2,4,6] + d[2,2,4,6] <= 0
 drop_at_cell_2_2_4_7: - 1000 x[2,2,4,7] + d[2,2,4,7] <= 0
 drop_at_cell_2_2_4_8: - 1000 x[2,2,4,8] + d[2,2,4,8] <= 0
 drop_at_cell_2_2_4_9: - 1000 x[2,2,4,9] + d[2,2,4,9] <= 0
 drop_at_cell_2_3_0_0: - 1000 x[2,3,0,0] + d[2,3,0,0] <= 0
 drop_at_cell_2_3_0_1: - 1000 x[2,3,0,1] + d[2,3,0,1] <= 0
 drop_at_cell_2_3_0_2: - 1000 x[2,3,0,2] + d[2,3,0,2] <= 0
 drop_at_cell_2_3_0_3: - 1000 x[2,3,0,3] + d[2,3,0,3] <= 0
 drop_at_cell_2_3_0_4: - 1000 x[2,3,0,4] + d[2,3,0,4] <= 0
 drop_at_cell_2_3_0_5: - 1000 x[2,3,0,5] + d[2,3,0,5] <= 0
 drop_at_cell_2_3_0_6: - 1000 x[2,3,0,6] + d[2,3,0,6] <= 0
 drop_at_cell_2_3_0_7: - 1000 x[2,3,0,7] + d[2,3,0,7] <= 0
 drop_at_cell_2_3_0_8: - 1000 x[2,3,0,8] + d[2,3,0,8] <= 0
 drop_at_cell_2_3_0_9: - 1000 x[2,3,0,9] + d[2,3,0,9] <= 0
 drop_at_cell_2_3_1_0: - 1000 x[2,3,1,0] + d[2,3,1,0] <= 0
 drop_at_cell_2_3_1_1: - 1000 x[2,3,1,1] + d[2,3,1,1] <= 0
 drop_at_cell_2_3_1_2: - 1000 x[2,3,1,2] + d[2,3,1,2] <= 0
 drop_at_cell_2_3_1_3: - 1000 x[2,3,1,3] + d[2,3,1,3] <= 0
 drop_at_cell_2_3_1_4: - 1000 x[2,3,1,4] + d[2,3,1,4] <= 0
 drop_at_cell_2_3_1_5: - 1000 x[2,3,1,5] + d[2,3,1,5] <= 0
 drop_at_cell_2_3_1_6: - 1000 x[2,3,1,6] + d[2,3,1,6] <= 0
 drop_at_cell_2_3_1_7: - 1000 x[2,3,1,7] + d[2,3,1,7] <= 0
 drop_at_cell_2_3_1_8: - 1000 x[2,3,1,8] + d[2,3,1,8] <= 0
 drop_at_cell_2_3_1_9: - 1000 x[2,3,1,9] + d[2,3,1,9] <= 0
 drop_at_cell_2_3_2_0: - 1000 x[2,3,2,0] + d[2,3,2,0] <= 0
 drop_at_cell_2_3_2_1: - 1000 x[2,3,2,1] + d[2,3,2,1] <= 0
 drop_at_cell_2_3_2_2: - 1000 x[2,3,2,2] + d[2,3,2,2] <= 0
 drop_at_cell_2_3_2_3: - 1000 x[2,3,2,3] + d[2,3,2,3] <= 0
 drop_at_cell_2_3_2_4: - 1000 x[2,3,2,4] + d[2,3,2,4] <= 0
 drop_at_cell_2_3_2_5: - 1000 x[2,3,2,5] + d[2,3,2,5] <= 0
 drop_at_cell_2_3_2_6: - 1000 x[2,3,2,6] + d[2,3,2,6] <= 0
 drop_at_cell_2_3_2_7: - 1000 x[2,3,2,7] + d[2,3,2,7] <= 0
 drop_at_cell_2_3_2_8: - 1000 x[2,3,2,8] + d[2,3,2,8] <= 0
 drop_at_cell_2_3_2_9: - 1000 x[2,3,2,9] + d[2,3,2,9] <= 0
 drop_at_cell_2_3_3_0: - 1000 x[2,3,3,0] + d[2,3,3,0] <= 0
 drop_at_cell_2_3_3_1: - 1000 x[2,3,3,1] + d[2,3,3,1] <= 0
 drop_at_cell_2_3_3_2: - 1000 x[2,3,3,2] + d[2,3,3,2] <= 0
 drop_at_cell_2_3_3_3: - 1000 x[2,3,3,3] + d[2,3,3,3] <= 0
 drop_at_cell_2_3_3_4: - 1000 x[2,3,3,4] + d[2,3,3,4] <= 0
 drop_at_cell_2_3_3_5: - 1000 x[2,3,3,5] + d[2,3,3,5] <= 0
 drop_at_cell_2_3_3_6: - 1000 x[2,3,3,6] + d[2,3,3,6] <= 0
 drop_at_cell_2_3_3_7: - 1000 x[2,3,3,7] + d[2,3,3,7] <= 0
 drop_at_cell_2_3_3_8: - 1000 x[2,3,3,8] + d[2,3,3,8] <= 0
 drop_at_cell_2_3_3_9: - 1000 x[2,3,3,9] + d[2,3,3,9] <= 0
 drop_at_cell_2_3_4_0: - 1000 x[2,3,4,0] + d[2,3,4,0] <= 0
 drop_at_cell_2_3_4_1: - 1000 x[2,3,4,1] + d[2,3,4,1] <= 0
 drop_at_cell_2_3_4_2: - 1000 x[2,3,4,2] + d[2,3,4,2] <= 0
 drop_at_cell_2_3_4_3: - 1000 x[2,3,4,3] + d[2,3,4,3] <= 0
 drop_at_cell_2_3_4_4: - 1000 x[2,3,4,4] + d[2,3,4,4] <= 0
 drop_at_cell_2_3_4_5: - 1000 x[2,3,4,5] + d[2,3,4,5] <= 0
 drop_at_cell_2_3_4_6: - 1000 x[2,3,4,6] + d[2,3,4,6] <= 0
 drop_at_cell_2_3_4_7: - 1000 x[2,3,4,7] + d[2,3,4,7] <= 0
 drop_at_cell_2_3_4_8: - 1000 x[2,3,4,8] + d[2,3,4,8] <= 0
 drop_at_cell_2_3_4_9: - 1000 x[2,3,4,9] + d[2,3,4,9] <= 0
 drop_at_cell_2_4_0_0: - 1000 x[2,4,0,0] + d[2,4,0,0] <= 0
 drop_at_cell_2_4_0_1: - 1000 x[2,4,0,1] + d[2,4,0,1] <= 0
 drop_at_cell_2_4_0_2: - 1000 x[2,4,0,2] + d[2,4,0,2] <= 0
 drop_at_cell_2_4_0_3: - 1000 x[2,4,0,3] + d[2,4,0,3] <= 0
 drop_at_cell_2_4_0_4: - 1000 x[2,4,0,4] + d[2,4,0,4] <= 0
 drop_at_cell_2_4_0_5: - 1000 x[2,4,0,5] + d[2,4,0,5] <= 0
 drop_at_cell_2_4_0_6: - 1000 x[2,4,0,6] + d[2,4,0,6] <= 0
 drop_at_cell_2_4_0_7: - 1000 x[2,4,0,7] + d[2,4,0,7] <= 0
 drop_at_cell_2_4_0_8: - 1000 x[2,4,0,8] + d[2,4,0,8] <= 0
 drop_at_cell_2_4_0_9: - 1000 x[2,4,0,9] + d[2,4,0,9] <= 0
 drop_at_cell_2_4_1_0: - 1000 x[2,4,1,0] + d[2,4,1,0] <= 0
 drop_at_cell_2_4_1_1: - 1000 x[2,4,1,1] + d[2,4,1,1] <= 0
 drop_at_cell_2_4_1_2: - 1000 x[2,4,1,2] + d[2,4,1,2] <= 0
 drop_at_cell_2_4_1_3: - 1000 x[2,4,1,3] + d[2,4,1,3] <= 0
 drop_at_cell_2_4_1_4: - 1000 x[2,4,1,4] + d[2,4,1,4] <= 0
 drop_at_cell_2_4_1_5: - 1000 x[2,4,1,5] + d[2,4,1,5] <= 0
 drop_at_cell_2_4_1_6: - 1000 x[2,4,1,6] + d[2,4,1,6] <= 0
 drop_at_cell_2_4_1_7: - 1000 x[2,4,1,7] + d[2,4,1,7] <= 0
 drop_at_cell_2_4_1_8: - 1000 x[2,4,1,8] + d[2,4,1,8] <= 0
 drop_at_cell_2_4_1_9: - 1000 x[2,4,1,9] + d[2,4,1,9] <= 0
 drop_at_cell_2_4_2_0: - 1000 x[2,4,2,0] + d[2,4,2,0] <= 0
 drop_at_cell_2_4_2_1: - 1000 x[2,4,2,1] + d[2,4,2,1] <= 0
 drop_at_cell_2_4_2_2: - 1000 x[2,4,2,2] + d[2,4,2,2] <= 0
 drop_at_cell_2_4_2_3: - 1000 x[2,4,2,3] + d[2,4,2,3] <= 0
 drop_at_cell_2_4_2_4: - 1000 x[2,4,2,4] + d[2,4,2,4] <= 0
 drop_at_cell_2_4_2_5: - 1000 x[2,4,2,5] + d[2,4,2,5] <= 0
 drop_at_cell_2_4_2_6: - 1000 x[2,4,2,6] + d[2,4,2,6] <= 0
 drop_at_cell_2_4_2_7: - 1000 x[2,4,2,7] + d[2,4,2,7] <= 0
 drop_at_cell_2_4_2_8: - 1000 x[2,4,2,8] + d[2,4,2,8] <= 0
 drop_at_cell_2_4_2_9: - 1000 x[2,4,2,9] + d[2,4,2,9] <= 0
 drop_at_cell_2_4_3_0: - 1000 x[2,4,3,0] + d[2,4,3,0] <= 0
 drop_at_cell_2_4_3_1: - 1000 x[2,4,3,1] + d[2,4,3,1] <= 0
 drop_at_cell_2_4_3_2: - 1000 x[2,4,3,2] + d[2,4,3,2] <= 0
 drop_at_cell_2_4_3_3: - 1000 x[2,4,3,3] + d[2,4,3,3] <= 0
 drop_at_cell_2_4_3_4: - 1000 x[2,4,3,4] + d[2,4,3,4] <= 0
 drop_at_cell_2_4_3_5: - 1000 x[2,4,3,5] + d[2,4,3,5] <= 0
 drop_at_cell_2_4_3_6: - 1000 x[2,4,3,6] + d[2,4,3,6] <= 0
 drop_at_cell_2_4_3_7: - 1000 x[2,4,3,7] + d[2,4,3,7] <= 0
 drop_at_cell_2_4_3_8: - 1000 x[2,4,3,8] + d[2,4,3,8] <= 0
 drop_at_cell_2_4_3_9: - 1000 x[2,4,3,9] + d[2,4,3,9] <= 0
 drop_at_cell_2_4_4_0: - 1000 x[2,4,4,0] + d[2,4,4,0] <= 0
 drop_at_cell_2_4_4_1: - 1000 x[2,4,4,1] + d[2,4,4,1] <= 0
 drop_at_cell_2_4_4_2: - 1000 x[2,4,4,2] + d[2,4,4,2] <= 0
 drop_at_cell_2_4_4_3: - 1000 x[2,4,4,3] + d[2,4,4,3] <= 0
 drop_at_cell_2_4_4_4: - 1000 x[2,4,4,4] + d[2,4,4,4] <= 0
 drop_at_cell_2_4_4_5: - 1000 x[2,4,4,5] + d[2,4,4,5] <= 0
 drop_at_cell_2_4_4_6: - 1000 x[2,4,4,6] + d[2,4,4,6] <= 0
 drop_at_cell_2_4_4_7: - 1000 x[2,4,4,7] + d[2,4,4,7] <= 0
 drop_at_cell_2_4_4_8: - 1000 x[2,4,4,8] + d[2,4,4,8] <= 0
 drop_at_cell_2_4_4_9: - 1000 x[2,4,4,9] + d[2,4,4,9] <= 0
 no_drop_at_water_0_4_4_0: d[0,4,4,0] = 0
 no_drop_at_water_0_4_4_1: d[0,4,4,1] = 0
 no_drop_at_water_0_4_4_2: d[0,4,4,2] = 0
 no_drop_at_water_0_4_4_3: d[0,4,4,3] = 0
 no_drop_at_water_0_4_4_4: d[0,4,4,4] = 0
 no_drop_at_water_0_4_4_5: d[0,4,4,5] = 0
 no_drop_at_water_0_4_4_6: d[0,4,4,6] = 0
 no_drop_at_water_0_4_4_7: d[0,4,4,7] = 0
 no_drop_at_water_0_4_4_8: d[0,4,4,8] = 0
 no_drop_at_water_0_4_4_9: d[0,4,4,9] = 0
 no_drop_at_water_0_0_0_0: d[0,0,0,0] = 0
 no_drop_at_water_0_0_0_1: d[0,0,0,1] = 0
 no_drop_at_water_0_0_0_2: d[0,0,0,2] = 0
 no_drop_at_water_0_0_0_3: d[0,0,0,3] = 0
 no_drop_at_water_0_0_0_4: d[0,0,0,4] = 0
 no_drop_at_water_0_0_0_5: d[0,0,0,5] = 0
 no_drop_at_water_0_0_0_6: d[0,0,0,6] = 0
 no_drop_at_water_0_0_0_7: d[0,0,0,7] = 0
 no_drop_at_water_0_0_0_8: d[0,0,0,8] = 0
 no_drop_at_water_0_0_0_9: d[0,0,0,9] = 0
 no_drop_at_water_1_4_4_0: d[1,4,4,0] = 0
 no_drop_at_water_1_4_4_1: d[1,4,4,1] = 0
 no_drop_at_water_1_4_4_2: d[1,4,4,2] = 0
 no_drop_at_water_1_4_4_3: d[1,4,4,3] = 0
 no_drop_at_water_1_4_4_4: d[1,4,4,4] = 0
 no_drop_at_water_1_4_4_5: d[1,4,4,5] = 0
 no_drop_at_water_1_4_4_6: d[1,4,4,6] = 0
 no_drop_at_water_1_4_4_7: d[1,4,4,7] = 0
 no_drop_at_water_1_4_4_8: d[1,4,4,8] = 0
 no_drop_at_water_1_4_4_9: d[1,4,4,9] = 0
 no_drop_at_water_1_0_0_0: d[1,0,0,0] = 0
 no_drop_at_water_1_0_0_1: d[1,0,0,1] = 0
 no_drop_at_water_1_0_0_2: d[1,0,0,2] = 0
 no_drop_at_water_1_0_0_3: d[1,0,0,3] = 0
 no_drop_at_water_1_0_0_4: d[1,0,0,4] = 0
 no_drop_at_water_1_0_0_5: d[1,0,0,5] = 0
 no_drop_at_water_1_0_0_6: d[1,0,0,6] = 0
 no_drop_at_water_1_0_0_7: d[1,0,0,7] = 0
 no_drop_at_water_1_0_0_8: d[1,0,0,8] = 0
 no_drop_at_water_1_0_0_9: d[1,0,0,9] = 0
 no_drop_at_water_2_4_4_0: d[2,4,4,0] = 0
 no_drop_at_water_2_4_4_1: d[2,4,4,1] = 0
 no_drop_at_water_2_4_4_2: d[2,4,4,2] = 0
 no_drop_at_water_2_4_4_3: d[2,4,4,3] = 0
 no_drop_at_water_2_4_4_4: d[2,4,4,4] = 0
 no_drop_at_water_2_4_4_5: d[2,4,4,5] = 0
 no_drop_at_water_2_4_4_6: d[2,4,4,6] = 0
 no_drop_at_water_2_4_4_7: d[2,4,4,7] = 0
 no_drop_at_water_2_4_4_8: d[2,4,4,8] = 0
 no_drop_at_water_2_4_4_9: d[2,4,4,9] = 0
 no_drop_at_water_2_0_0_0: d[2,0,0,0] = 0
 no_drop_at_water_2_0_0_1: d[2,0,0,1] = 0
 no_drop_at_water_2_0_0_2: d[2,0,0,2] = 0
 no_drop_at_water_2_0_0_3: d[2,0,0,3] = 0
 no_drop_at_water_2_0_0_4: d[2,0,0,4] = 0
 no_drop_at_water_2_0_0_5: d[2,0,0,5] = 0
 no_drop_at_water_2_0_0_6: d[2,0,0,6] = 0
 no_drop_at_water_2_0_0_7: d[2,0,0,7] = 0
 no_drop_at_water_2_0_0_8: d[2,0,0,8] = 0
 no_drop_at_water_2_0_0_9: d[2,0,0,9] = 0
 drop_cap_0_0_0: d[0,0,0,0] + d[1,0,0,0] + d[2,0,0,0] <= 2000
 drop_cap_0_0_1: d[0,0,0,1] + d[1,0,0,1] + d[2,0,0,1] <= 2000
 drop_cap_0_0_2: d[0,0,0,2] + d[1,0,0,2] + d[2,0,0,2] <= 2000
 drop_cap_0_0_3: d[0,0,0,3] + d[1,0,0,3] + d[2,0,0,3] <= 2000
 drop_cap_0_0_4: d[0,0,0,4] + d[1,0,0,4] + d[2,0,0,4] <= 2000
 drop_cap_0_0_5: d[0,0,0,5] + d[1,0,0,5] + d[2,0,0,5] <= 2000
 drop_cap_0_0_6: d[0,0,0,6] + d[1,0,0,6] + d[2,0,0,6] <= 2000
 drop_cap_0_0_7: d[0,0,0,7] + d[1,0,0,7] + d[2,0,0,7] <= 2000
 drop_cap_0_0_8: d[0,0,0,8] + d[1,0,0,8] + d[2,0,0,8] <= 2000
 drop_cap_0_0_9: d[0,0,0,9] + d[1,0,0,9] + d[2,0,0,9] <= 2000
 drop_cap_0_1_0: d[0,0,1,0] + d[1,0,1,0] + d[2,0,1,0] <= 2000
 drop_cap_0_1_1: d[0,0,1,1] + d[1,0,1,1] + d[2,0,1,1] <= 2000
 drop_cap_0_1_2: d[0,0,1,2] + d[1,0,1,2] + d[2,0,1,2] <= 2000
 drop_cap_0_1_3: d[0,0,1,3] + d[1,0,1,3] + d[2,0,1,3] <= 2000
 drop_cap_0_1_4: d[0,0,1,4] + d[1,0,1,4] + d[2,0,1,4] <= 2000
 drop_cap_0_1_5: d[0,0,1,5] + d[1,0,1,5] + d[2,0,1,5] <= 2000
 drop_cap_0_1_6: d[0,0,1,6] + d[1,0,1,6] + d[2,0,1,6] <= 2000
 drop_cap_0_1_7: d[0,0,1,7] + d[1,0,1,7] + d[2,0,1,7] <= 2000
 drop_cap_0_1_8: d[0,0,1,8] + d[1,0,1,8] + d[2,0,1,8] <= 2000
 drop_cap_0_1_9: d[0,0,1,9] + d[1,0,1,9] + d[2,0,1,9] <= 2000
 drop_cap_0_2_0: d[0,0,2,0] + d[1,0,2,0] + d[2,0,2,0] <= 2000
 drop_cap_0_2_1: d[0,0,2,1] + d[1,0,2,1] + d[2,0,2,1] <= 2000
 drop_cap_0_2_2: d[0,0,2,2] + d[1,0,2,2] + d[2,0,2,2] <= 2000
 drop_cap_0_2_3: d[0,0,2,3] + d[1,0,2,3] + d[2,0,2,3] <= 2000
 drop_cap_0_2_4: d[0,0,2,4] + d[1,0,2,4] + d[2,0,2,4] <= 2000
 drop_cap_0_2_5: d[0,0,2,5] + d[1,0,2,5] + d[2,0,2,5] <= 2000
 drop_cap_0_2_6: d[0,0,2,6] + d[1,0,2,6] + d[2,0,2,6] <= 2000
 drop_cap_0_2_7: d[0,0,2,7] + d[1,0,2,7] + d[2,0,2,7] <= 2000
 drop_cap_0_2_8: d[0,0,2,8] + d[1,0,2,8] + d[2,0,2,8] <= 2000
 drop_cap_0_2_9: d[0,0,2,9] + d[1,0,2,9] + d[2,0,2,9] <= 2000
 drop_cap_0_3_0: d[0,0,3,0] + d[1,0,3,0] + d[2,0,3,0] <= 2000
 drop_cap_0_3_1: d[0,0,3,1] + d[1,0,3,1] + d[2,0,3,1] <= 2000
 drop_cap_0_3_2: d[0,0,3,2] + d[1,0,3,2] + d[2,0,3,2] <= 2000
 drop_cap_0_3_3: d[0,0,3,3] + d[1,0,3,3] + d[2,0,3,3] <= 2000
 drop_cap_0_3_4: d[0,0,3,4] + d[1,0,3,4] + d[2,0,3,4] <= 2000
 drop_cap_0_3_5: d[0,0,3,5] + d[1,0,3,5] + d[2,0,3,5] <= 2000
 drop_cap_0_3_6: d[0,0,3,6] + d[1,0,3,6] + d[2,0,3,6] <= 2000
 drop_cap_0_3_7: d[0,0,3,7] + d[1,0,3,7] + d[2,0,3,7] <= 2000
 drop_cap_0_3_8: d[0,0,3,8] + d[1,0,3,8] + d[2,0,3,8] <= 2000
 drop_cap_0_3_9: d[0,0,3,9] + d[1,0,3,9] + d[2,0,3,9] <= 2000
 drop_cap_0_4_0: d[0,0,4,0] + d[1,0,4,0] + d[2,0,4,0] <= 2000
 drop_cap_0_4_1: d[0,0,4,1] + d[1,0,4,1] + d[2,0,4,1] <= 2000
 drop_cap_0_4_2: d[0,0,4,2] + d[1,0,4,2] + d[2,0,4,2] <= 2000
 drop_cap_0_4_3: d[0,0,4,3] + d[1,0,4,3] + d[2,0,4,3] <= 2000
 drop_cap_0_4_4: d[0,0,4,4] + d[1,0,4,4] + d[2,0,4,4] <= 2000
 drop_cap_0_4_5: d[0,0,4,5] + d[1,0,4,5] + d[2,0,4,5] <= 2000
 drop_cap_0_4_6: d[0,0,4,6] + d[1,0,4,6] + d[2,0,4,6] <= 2000
 drop_cap_0_4_7: d[0,0,4,7] + d[1,0,4,7] + d[2,0,4,7] <= 2000
 drop_cap_0_4_8: d[0,0,4,8] + d[1,0,4,8] + d[2,0,4,8] <= 2000
 drop_cap_0_4_9: d[0,0,4,9] + d[1,0,4,9] + d[2,0,4,9] <= 2000
 drop_cap_1_0_0: d[0,1,0,0] + d[1,1,0,0] + d[2,1,0,0] <= 2000
 drop_cap_1_0_1: d[0,1,0,1] + d[1,1,0,1] + d[2,1,0,1] <= 2000
 drop_cap_1_0_2: d[0,1,0,2] + d[1,1,0,2] + d[2,1,0,2] <= 2000
 drop_cap_1_0_3: d[0,1,0,3] + d[1,1,0,3] + d[2,1,0,3] <= 2000
 drop_cap_1_0_4: d[0,1,0,4] + d[1,1,0,4] + d[2,1,0,4] <= 2000
 drop_cap_1_0_5: d[0,1,0,5] + d[1,1,0,5] + d[2,1,0,5] <= 2000
 drop_cap_1_0_6: d[0,1,0,6] + d[1,1,0,6] + d[2,1,0,6] <= 2000
 drop_cap_1_0_7: d[0,1,0,7] + d[1,1,0,7] + d[2,1,0,7] <= 2000
 drop_cap_1_0_8: d[0,1,0,8] + d[1,1,0,8] + d[2,1,0,8] <= 2000
 drop_cap_1_0_9: d[0,1,0,9] + d[1,1,0,9] + d[2,1,0,9] <= 2000
 drop_cap_1_1_0: d[0,1,1,0] + d[1,1,1,0] + d[2,1,1,0] <= 2000
 drop_cap_1_1_1: d[0,1,1,1] + d[1,1,1,1] + d[2,1,1,1] <= 2000
 drop_cap_1_1_2: d[0,1,1,2] + d[1,1,1,2] + d[2,1,1,2] <= 2000
 drop_cap_1_1_3: d[0,1,1,3] + d[1,1,1,3] + d[2,1,1,3] <= 2000
 drop_cap_1_1_4: d[0,1,1,4] + d[1,1,1,4] + d[2,1,1,4] <= 2000
 drop_cap_1_1_5: d[0,1,1,5] + d[1,1,1,5] + d[2,1,1,5] <= 2000
 drop_cap_1_1_6: d[0,1,1,6] + d[1,1,1,6] + d[2,1,1,6] <= 2000
 drop_cap_1_1_7: d[0,1,1,7] + d[1,1,1,7] + d[2,1,1,7] <= 2000
 drop_cap_1_1_8: d[0,1,1,8] + d[1,1,1,8] + d[2,1,1,8] <= 2000
 drop_cap_1_1_9: d[0,1,1,9] + d[1,1,1,9] + d[2,1,1,9] <= 2000
 drop_cap_1_2_0: d[0,1,2,0] + d[1,1,2,0] + d[2,1,2,0] <= 2000
 drop_cap_1_2_1: d[0,1,2,1] + d[1,1,2,1] + d[2,1,2,1] <= 2000
 drop_cap_1_2_2: d[0,1,2,2] + d[1,1,2,2] + d[2,1,2,2] <= 2000
 drop_cap_1_2_3: d[0,1,2,3] + d[1,1,2,3] + d[2,1,2,3] <= 2000
 drop_cap_1_2_4: d[0,1,2,4] + d[1,1,2,4] + d[2,1,2,4] <= 2000
 drop_cap_1_2_5: d[0,1,2,5] + d[1,1,2,5] + d[2,1,2,5] <= 2000
 drop_cap_1_2_6: d[0,1,2,6] + d[1,1,2,6] + d[2,1,2,6] <= 2000
 drop_cap_1_2_7: d[0,1,2,7] + d[1,1,2,7] + d[2,1,2,7] <= 2000
 drop_cap_1_2_8: d[0,1,2,8] + d[1,1,2,8] + d[2,1,2,8] <= 2000
 drop_cap_1_2_9: d[0,1,2,9] + d[1,1,2,9] + d[2,1,2,9] <= 2000
 drop_cap_1_3_0: d[0,1,3,0] + d[1,1,3,0] + d[2,1,3,0] <= 2000
 drop_cap_1_3_1: d[0,1,3,1] + d[1,1,3,1] + d[2,1,3,1] <= 2000
 drop_cap_1_3_2: d[0,1,3,2] + d[1,1,3,2] + d[2,1,3,2] <= 2000
 drop_cap_1_3_3: d[0,1,3,3] + d[1,1,3,3] + d[2,1,3,3] <= 2000
 drop_cap_1_3_4: d[0,1,3,4] + d[1,1,3,4] + d[2,1,3,4] <= 2000
 drop_cap_1_3_5: d[0,1,3,5] + d[1,1,3,5] + d[2,1,3,5] <= 2000
 drop_cap_1_3_6: d[0,1,3,6] + d[1,1,3,6] + d[2,1,3,6] <= 2000
 drop_cap_1_3_7: d[0,1,3,7] + d[1,1,3,7] + d[2,1,3,7] <= 2000
 drop_cap_1_3_8: d[0,1,3,8] + d[1,1,3,8] + d[2,1,3,8] <= 2000
 drop_cap_1_3_9: d[0,1,3,9] + d[1,1,3,9] + d[2,1,3,9] <= 2000
 drop_cap_1_4_0: d[0,1,4,0] + d[1,1,4,0] + d[2,1,4,0] <= 2000
 drop_cap_1_4_1: d[0,1,4,1] + d[1,1,4,1] + d[2,1,4,1] <= 2000
 drop_cap_1_4_2: d[0,1,4,2] + d[1,1,4,2] + d[2,1,4,2] <= 2000
 drop_cap_1_4_3: d[0,1,4,3] + d[1,1,4,3] + d[2,1,4,3] <= 2000
 drop_cap_1_4_4: d[0,1,4,4] + d[1,1,4,4] + d[2,1,4,4] <= 2000
 drop_cap_1_4_5: d[0,1,4,5] + d[1,1,4,5] + d[2,1,4,5] <= 2000
 drop_cap_1_4_6: d[0,1,4,6] + d[1,1,4,6] + d[2,1,4,6] <= 2000
 drop_cap_1_4_7: d[0,1,4,7] + d[1,1,4,7] + d[2,1,4,7] <= 2000
 drop_cap_1_4_8: d[0,1,4,8] + d[1,1,4,8] + d[2,1,4,8] <= 2000
 drop_cap_1_4_9: d[0,1,4,9] + d[1,1,4,9] + d[2,1,4,9] <= 2000
 drop_cap_2_0_0: d[0,2,0,0] + d[1,2,0,0] + d[2,2,0,0] <= 2000
 drop_cap_2_0_1: d[0,2,0,1] + d[1,2,0,1] + d[2,2,0,1] <= 2000
 drop_cap_2_0_2: d[0,2,0,2] + d[1,2,0,2] + d[2,2,0,2] <= 2000
 drop_cap_2_0_3: d[0,2,0,3] + d[1,2,0,3] + d[2,2,0,3] <= 2000
 drop_cap_2_0_4: d[0,2,0,4] + d[1,2,0,4] + d[2,2,0,4] <= 2000
 drop_cap_2_0_5: d[0,2,0,5] + d[1,2,0,5] + d[2,2,0,5] <= 2000
 drop_cap_2_0_6: d[0,2,0,6] + d[1,2,0,6] + d[2,2,0,6] <= 2000
 drop_cap_2_0_7: d[0,2,0,7] + d[1,2,0,7] + d[2,2,0,7] <= 2000
 drop_cap_2_0_8: d[0,2,0,8] + d[1,2,0,8] + d[2,2,0,8] <= 2000
 drop_cap_2_0_9: d[0,2,0,9] + d[1,2,0,9] + d[2,2,0,9] <= 2000
 drop_cap_2_1_0: d[0,2,1,0] + d[1,2,1,0] + d[2,2,1,0] <= 2000
 drop_cap_2_1_1: d[0,2,1,1] + d[1,2,1,1] + d[2,2,1,1] <= 2000
 drop_cap_2_1_2: d[0,2,1,2] + d[1,2,1,2] + d[2,2,1,2] <= 2000
 drop_cap_2_1_3: d[0,2,1,3] + d[1,2,1,3] + d[2,2,1,3] <= 2000
 drop_cap_2_1_4: d[0,2,1,4] + d[1,2,1,4] + d[2,2,1,4] <= 2000
 drop_cap_2_1_5: d[0,2,1,5] + d[1,2,1,5] + d[2,2,1,5] <= 2000
 drop_cap_2_1_6: d[0,2,1,6] + d[1,2,1,6] + d[2,2,1,6] <= 2000
 drop_cap_2_1_7: d[0,2,1,7] + d[1,2,1,7] + d[2,2,1,7] <= 2000
 drop_cap_2_1_8: d[0,2,1,8] + d[1,2,1,8] + d[2,2,1,8] <= 2000
 drop_cap_2_1_9: d[0,2,1,9] + d[1,2,1,9] + d[2,2,1,9] <= 2000
 drop_cap_2_2_0: d[0,2,2,0] + d[1,2,2,0] + d[2,2,2,0] <= 2000
 drop_cap_2_2_1: d[0,2,2,1] + d[1,2,2,1] + d[2,2,2,1] <= 2000
 drop_cap_2_2_2: d[0,2,2,2] + d[1,2,2,2] + d[2,2,2,2] <= 2000
 drop_cap_2_2_3: d[0,2,2,3] + d[1,2,2,3] + d[2,2,2,3] <= 2000
 drop_cap_2_2_4: d[0,2,2,4] + d[1,2,2,4] + d[2,2,2,4] <= 2000
 drop_cap_2_2_5: d[0,2,2,5] + d[1,2,2,5] + d[2,2,2,5] <= 2000
 drop_cap_2_2_6: d[0,2,2,6] + d[1,2,2,6] + d[2,2,2,6] <= 2000
 drop_cap_2_2_7: d[0,2,2,7] + d[1,2,2,7] + d[2,2,2,7] <= 2000
 drop_cap_2_2_8: d[0,2,2,8] + d[1,2,2,8] + d[2,2,2,8] <= 2000
 drop_cap_2_2_9: d[0,2,2,9] + d[1,2,2,9] + d[2,2,2,9] <= 2000
 drop_cap_2_3_0: d[0,2,3,0] + d[1,2,3,0] + d[2,2,3,0] <= 2000
 drop_cap_2_3_1: d[0,2,3,1] + d[1,2,3,1] + d[2,2,3,1] <= 2000
 drop_cap_2_3_2: d[0,2,3,2] + d[1,2,3,2] + d[2,2,3,2] <= 2000
 drop_cap_2_3_3: d[0,2,3,3] + d[1,2,3,3] + d[2,2,3,3] <= 2000
 drop_cap_2_3_4: d[0,2,3,4] + d[1,2,3,4] + d[2,2,3,4] <= 2000
 drop_cap_2_3_5: d[0,2,3,5] + d[1,2,3,5] + d[2,2,3,5] <= 2000
 drop_cap_2_3_6: d[0,2,3,6] + d[1,2,3,6] + d[2,2,3,6] <= 2000
 drop_cap_2_3_7: d[0,2,3,7] + d[1,2,3,7] + d[2,2,3,7] <= 2000
 drop_cap_2_3_8: d[0,2,3,8] + d[1,2,3,8] + d[2,2,3,8] <= 2000
 drop_cap_2_3_9: d[0,2,3,9] + d[1,2,3,9] + d[2,2,3,9] <= 2000
 drop_cap_2_4_0: d[0,2,4,0] + d[1,2,4,0] + d[2,2,4,0] <= 2000
 drop_cap_2_4_1: d[0,2,4,1] + d[1,2,4,1] + d[2,2,4,1] <= 2000
 drop_cap_2_4_2: d[0,2,4,2] + d[1,2,4,2] + d[2,2,4,2] <= 2000
 drop_cap_2_4_3: d[0,2,4,3] + d[1,2,4,3] + d[2,2,4,3] <= 2000
 drop_cap_2_4_4: d[0,2,4,4] + d[1,2,4,4] + d[2,2,4,4] <= 2000
 drop_cap_2_4_5: d[0,2,4,5] + d[1,2,4,5] + d[2,2,4,5] <= 2000
 drop_cap_2_4_6: d[0,2,4,6] + d[1,2,4,6] + d[2,2,4,6] <= 2000
 drop_cap_2_4_7: d[0,2,4,7] + d[1,2,4,7] + d[2,2,4,7] <= 2000
 drop_cap_2_4_8: d[0,2,4,8] + d[1,2,4,8] + d[2,2,4,8] <= 2000
 drop_cap_2_4_9: d[0,2,4,9] + d[1,2,4,9] + d[2,2,4,9] <= 2000
 drop_cap_3_0_0: d[0,3,0,0] + d[1,3,0,0] + d[2,3,0,0] <= 2000
 drop_cap_3_0_1: d[0,3,0,1] + d[1,3,0,1] + d[2,3,0,1] <= 2000
 drop_cap_3_0_2: d[0,3,0,2] + d[1,3,0,2] + d[2,3,0,2] <= 2000
 drop_cap_3_0_3: d[0,3,0,3] + d[1,3,0,3] + d[2,3,0,3] <= 2000
 drop_cap_3_0_4: d[0,3,0,4] + d[1,3,0,4] + d[2,3,0,4] <= 2000
 drop_cap_3_0_5: d[0,3,0,5] + d[1,3,0,5] + d[2,3,0,5] <= 2000
 drop_cap_3_0_6: d[0,3,0,6] + d[1,3,0,6] + d[2,3,0,6] <= 2000
 drop_cap_3_0_7: d[0,3,0,7] + d[1,3,0,7] + d[2,3,0,7] <= 2000
 drop_cap_3_0_8: d[0,3,0,8] + d[1,3,0,8] + d[2,3,0,8] <= 2000
 drop_cap_3_0_9: d[0,3,0,9] + d[1,3,0,9] + d[2,3,0,9] <= 2000
 drop_cap_3_1_0: d[0,3,1,0] + d[1,3,1,0] + d[2,3,1,0] <= 2000
 drop_cap_3_1_1: d[0,3,1,1] + d[1,3,1,1] + d[2,3,1,1] <= 2000
 drop_cap_3_1_2: d[0,3,1,2] + d[1,3,1,2] + d[2,3,1,2] <= 2000
 drop_cap_3_1_3: d[0,3,1,3] + d[1,3,1,3] + d[2,3,1,3] <= 2000
 drop_cap_3_1_4: d[0,3,1,4] + d[1,3,1,4] + d[2,3,1,4] <= 2000
 drop_cap_3_1_5: d[0,3,1,5] + d[1,3,1,5] + d[2,3,1,5] <= 2000
 drop_cap_3_1_6: d[0,3,1,6] + d[1,3,1,6] + d[2,3,1,6] <= 2000
 drop_cap_3_1_7: d[0,3,1,7] + d[1,3,1,7] + d[2,3,1,7] <= 2000
 drop_cap_3_1_8: d[0,3,1,8] + d[1,3,1,8] + d[2,3,1,8] <= 2000
 drop_cap_3_1_9: d[0,3,1,9] + d[1,3,1,9] + d[2,3,1,9] <= 2000
 drop_cap_3_2_0: d[0,3,2,0] + d[1,3,2,0] + d[2,3,2,0] <= 2000
 drop_cap_3_2_1: d[0,3,2,1] + d[1,3,2,1] + d[2,3,2,1] <= 2000
 drop_cap_3_2_2: d[0,3,2,2] + d[1,3,2,2] + d[2,3,2,2] <= 2000
 drop_cap_3_2_3: d[0,3,2,3] + d[1,3,2,3] + d[2,3,2,3] <= 2000
 drop_cap_3_2_4: d[0,3,2,4] + d[1,3,2,4] + d[2,3,2,4] <= 2000
 drop_cap_3_2_5: d[0,3,2,5] + d[1,3,2,5] + d[2,3,2,5] <= 2000
 drop_cap_3_2_6: d[0,3,2,6] + d[1,3,2,6] + d[2,3,2,6] <= 2000
 drop_cap_3_2_7: d[0,3,2,7] + d[1,3,2,7] + d[2,3,2,7] <= 2000
 drop_cap_3_2_8: d[0,3,2,8] + d[1,3,2,8] + d[2,3,2,8] <= 2000
 drop_cap_3_2_9: d[0,3,2,9] + d[1,3,2,9] + d[2,3,2,9] <= 2000
 drop_cap_3_3_0: d[0,3,3,0] + d[1,3,3,0] + d[2,3,3,0] <= 2000
 drop_cap_3_3_1: d[0,3,3,1] + d[1,3,3,1] + d[2,3,3,1] <= 2000
 drop_cap_3_3_2: d[0,3,3,2] + d[1,3,3,2] + d[2,3,3,2] <= 2000
 drop_cap_3_3_3: d[0,3,3,3] + d[1,3,3,3] + d[2,3,3,3] <= 2000
 drop_cap_3_3_4: d[0,3,3,4] + d[1,3,3,4] + d[2,3,3,4] <= 2000
 drop_cap_3_3_5: d[0,3,3,5] + d[1,3,3,5] + d[2,3,3,5] <= 2000
 drop_cap_3_3_6: d[0,3,3,6] + d[1,3,3,6] + d[2,3,3,6] <= 2000
 drop_cap_3_3_7: d[0,3,3,7] + d[1,3,3,7] + d[2,3,3,7] <= 2000
 drop_cap_3_3_8: d[0,3,3,8] + d[1,3,3,8] + d[2,3,3,8] <= 2000
 drop_cap_3_3_9: d[0,3,3,9] + d[1,3,3,9] + d[2,3,3,9] <= 2000
 drop_cap_3_4_0: d[0,3,4,0] + d[1,3,4,0] + d[2,3,4,0] <= 2000
 drop_cap_3_4_1: d[0,3,4,1] + d[1,3,4,1] + d[2,3,4,1] <= 2000
 drop_cap_3_4_2: d[0,3,4,2] + d[1,3,4,2] + d[2,3,4,2] <= 2000
 drop_cap_3_4_3: d[0,3,4,3] + d[1,3,4,3] + d[2,3,4,3] <= 2000
 drop_cap_3_4_4: d[0,3,4,4] + d[1,3,4,4] + d[2,3,4,4] <= 2000
 drop_cap_3_4_5: d[0,3,4,5] + d[1,3,4,5] + d[2,3,4,5] <= 2000
 drop_cap_3_4_6: d[0,3,4,6] + d[1,3,4,6] + d[2,3,4,6] <= 2000
 drop_cap_3_4_7: d[0,3,4,7] + d[1,3,4,7] + d[2,3,4,7] <= 2000
 drop_cap_3_4_8: d[0,3,4,8] + d[1,3,4,8] + d[2,3,4,8] <= 2000
 drop_cap_3_4_9: d[0,3,4,9] + d[1,3,4,9] + d[2,3,4,9] <= 2000
 drop_cap_4_0_0: d[0,4,0,0] + d[1,4,0,0] + d[2,4,0,0] <= 2000
 drop_cap_4_0_1: d[0,4,0,1] + d[1,4,0,1] + d[2,4,0,1] <= 2000
 drop_cap_4_0_2: d[0,4,0,2] + d[1,4,0,2] + d[2,4,0,2] <= 2000
 drop_cap_4_0_3: d[0,4,0,3] + d[1,4,0,3] + d[2,4,0,3] <= 2000
 drop_cap_4_0_4: d[0,4,0,4] + d[1,4,0,4] + d[2,4,0,4] <= 2000
 drop_cap_4_0_5: d[0,4,0,5] + d[1,4,0,5] + d[2,4,0,5] <= 2000
 drop_cap_4_0_6: d[0,4,0,6] + d[1,4,0,6] + d[2,4,0,6] <= 2000
 drop_cap_4_0_7: d[0,4,0,7] + d[1,4,0,7] + d[2,4,0,7] <= 2000
 drop_cap_4_0_8: d[0,4,0,8] + d[1,4,0,8] + d[2,4,0,8] <= 2000
 drop_cap_4_0_9: d[0,4,0,9] + d[1,4,0,9] + d[2,4,0,9] <= 2000
 drop_cap_4_1_0: d[0,4,1,0] + d[1,4,1,0] + d[2,4,1,0] <= 2000
 drop_cap_4_1_1: d[0,4,1,1] + d[1,4,1,1] + d[2,4,1,1] <= 2000
 drop_cap_4_1_2: d[0,4,1,2] + d[1,4,1,2] + d[2,4,1,2] <= 2000
 drop_cap_4_1_3: d[0,4,1,3] + d[1,4,1,3] + d[2,4,1,3] <= 2000
 drop_cap_4_1_4: d[0,4,1,4] + d[1,4,1,4] + d[2,4,1,4] <= 2000
 drop_cap_4_1_5: d[0,4,1,5] + d[1,4,1,5] + d[2,4,1,5] <= 2000
 drop_cap_4_1_6: d[0,4,1,6] + d[1,4,1,6] + d[2,4,1,6] <= 2000
 drop_cap_4_1_7: d[0,4,1,7] + d[1,4,1,7] + d[2,4,1,7] <= 2000
 drop_cap_4_1_8: d[0,4,1,8] + d[1,4,1,8] + d[2,4,1,8] <= 2000
 drop_cap_4_1_9: d[0,4,1,9] + d[1,4,1,9] + d[2,4,1,9] <= 2000
 drop_cap_4_2_0: d[0,4,2,0] + d[1,4,2,0] + d[2,4,2,0] <= 2000
 drop_cap_4_2_1: d[0,4,2,1] + d[1,4,2,1] + d[2,4,2,1] <= 2000
 drop_cap_4_2_2: d[0,4,2,2] + d[1,4,2,2] + d[2,4,2,2] <= 2000
 drop_cap_4_2_3: d[0,4,2,3] + d[1,4,2,3] + d[2,4,2,3] <= 2000
 drop_cap_4_2_4: d[0,4,2,4] + d[1,4,2,4] + d[2,4,2,4] <= 2000
 drop_cap_4_2_5: d[0,4,2,5] + d[1,4,2,5] + d[2,4,2,5] <= 2000
 drop_cap_4_2_6: d[0,4,2,6] + d[1,4,2,6] + d[2,4,2,6] <= 2000
 drop_cap_4_2_7: d[0,4,2,7] + d[1,4,2,7] + d[2,4,2,7] <= 2000
 drop_cap_4_2_8: d[0,4,2,8] + d[1,4,2,8] + d[2,4,2,8] <= 2000
 drop_cap_4_2_9: d[0,4,2,9] + d[1,4,2,9] + d[2,4,2,9] <= 2000
 drop_cap_4_3_0: d[0,4,3,0] + d[1,4,3,0] + d[2,4,3,0] <= 2000
 drop_cap_4_3_1: d[0,4,3,1] + d[1,4,3,1] + d[2,4,3,1] <= 2000
 drop_cap_4_3_2: d[0,4,3,2] + d[1,4,3,2] + d[2,4,3,2] <= 2000
 drop_cap_4_3_3: d[0,4,3,3] + d[1,4,3,3] + d[2,4,3,3] <= 2000
 drop_cap_4_3_4: d[0,4,3,4] + d[1,4,3,4] + d[2,4,3,4] <= 2000
 drop_cap_4_3_5: d[0,4,3,5] + d[1,4,3,5] + d[2,4,3,5] <= 2000
 drop_cap_4_3_6: d[0,4,3,6] + d[1,4,3,6] + d[2,4,3,6] <= 2000
 drop_cap_4_3_7: d[0,4,3,7] + d[1,4,3,7] + d[2,4,3,7] <= 2000
 drop_cap_4_3_8: d[0,4,3,8] + d[1,4,3,8] + d[2,4,3,8] <= 2000
 drop_cap_4_3_9: d[0,4,3,9] + d[1,4,3,9] + d[2,4,3,9] <= 2000
 drop_cap_4_4_0: d[0,4,4,0] + d[1,4,4,0] + d[2,4,4,0] <= 2000
 drop_cap_4_4_1: d[0,4,4,1] + d[1,4,4,1] + d[2,4,4,1] <= 2000
 drop_cap_4_4_2: d[0,4,4,2] + d[1,4,4,2] + d[2,4,4,2] <= 2000
 drop_cap_4_4_3: d[0,4,4,3] + d[1,4,4,3] + d[2,4,4,3] <= 2000
 drop_cap_4_4_4: d[0,4,4,4] + d[1,4,4,4] + d[2,4,4,4] <= 2000
 drop_cap_4_4_5: d[0,4,4,5] + d[1,4,4,5] + d[2,4,4,5] <= 2000
 drop_cap_4_4_6: d[0,4,4,6] + d[1,4,4,6] + d[2,4,4,6] <= 2000
 drop_cap_4_4_7: d[0,4,4,7] + d[1,4,4,7] + d[2,4,4,7] <= 2000
 drop_cap_4_4_8: d[0,4,4,8] + d[1,4,4,8] + d[2,4,4,8] <= 2000
 drop_cap_4_4_9: d[0,4,4,9] + d[1,4,4,9] + d[2,4,4,9] <= 2000
 no_drop_if_ext_0_0_0_0: 3000 e[0,0,0] + d[0,0,0,0] <= 3000
 no_drop_if_ext_0_0_0_1: 3000 e[0,0,1] + d[0,0,0,1] <= 3000
 no_drop_if_ext_0_0_0_2: 3000 e[0,0,2] + d[0,0,0,2] <= 3000
 no_drop_if_ext_0_0_0_3: 3000 e[0,0,3] + d[0,0,0,3] <= 3000
 no_drop_if_ext_0_0_0_4: 3000 e[0,0,4] + d[0,0,0,4] <= 3000
 no_drop_if_ext_0_0_0_5: 3000 e[0,0,5] + d[0,0,0,5] <= 3000
 no_drop_if_ext_0_0_0_6: 3000 e[0,0,6] + d[0,0,0,6] <= 3000
 no_drop_if_ext_0_0_0_7: 3000 e[0,0,7] + d[0,0,0,7] <= 3000
 no_drop_if_ext_0_0_0_8: 3000 e[0,0,8] + d[0,0,0,8] <= 3000
 no_drop_if_ext_0_0_0_9: 3000 e[0,0,9] + d[0,0,0,9] <= 3000
 no_drop_if_ext_0_0_1_0: 3000 e[0,1,0] + d[0,0,1,0] <= 3000
 no_drop_if_ext_0_0_1_1: 3000 e[0,1,1] + d[0,0,1,1] <= 3000
 no_drop_if_ext_0_0_1_2: 3000 e[0,1,2] + d[0,0,1,2] <= 3000
 no_drop_if_ext_0_0_1_3: 3000 e[0,1,3] + d[0,0,1,3] <= 3000
 no_drop_if_ext_0_0_1_4: 3000 e[0,1,4] + d[0,0,1,4] <= 3000
 no_drop_if_ext_0_0_1_5: 3000 e[0,1,5] + d[0,0,1,5] <= 3000
 no_drop_if_ext_0_0_1_6: 3000 e[0,1,6] + d[0,0,1,6] <= 3000
 no_drop_if_ext_0_0_1_7: 3000 e[0,1,7] + d[0,0,1,7] <= 3000
 no_drop_if_ext_0_0_1_8: 3000 e[0,1,8] + d[0,0,1,8] <= 3000
 no_drop_if_ext_0_0_1_9: 3000 e[0,1,9] + d[0,0,1,9] <= 3000
 no_drop_if_ext_0_0_2_0: 3000 e[0,2,0] + d[0,0,2,0] <= 3000
 no_drop_if_ext_0_0_2_1: 3000 e[0,2,1] + d[0,0,2,1] <= 3000
 no_drop_if_ext_0_0_2_2: 3000 e[0,2,2] + d[0,0,2,2] <= 3000
 no_drop_if_ext_0_0_2_3: 3000 e[0,2,3] + d[0,0,2,3] <= 3000
 no_drop_if_ext_0_0_2_4: 3000 e[0,2,4] + d[0,0,2,4] <= 3000
 no_drop_if_ext_0_0_2_5: 3000 e[0,2,5] + d[0,0,2,5] <= 3000
 no_drop_if_ext_0_0_2_6: 3000 e[0,2,6] + d[0,0,2,6] <= 3000
 no_drop_if_ext_0_0_2_7: 3000 e[0,2,7] + d[0,0,2,7] <= 3000
 no_drop_if_ext_0_0_2_8: 3000 e[0,2,8] + d[0,0,2,8] <= 3000
 no_drop_if_ext_0_0_2_9: 3000 e[0,2,9] + d[0,0,2,9] <= 3000
 no_drop_if_ext_0_0_3_0: 3000 e[0,3,0] + d[0,0,3,0] <= 3000
 no_drop_if_ext_0_0_3_1: 3000 e[0,3,1] + d[0,0,3,1] <= 3000
 no_drop_if_ext_0_0_3_2: 3000 e[0,3,2] + d[0,0,3,2] <= 3000
 no_drop_if_ext_0_0_3_3: 3000 e[0,3,3] + d[0,0,3,3] <= 3000
 no_drop_if_ext_0_0_3_4: 3000 e[0,3,4] + d[0,0,3,4] <= 3000
 no_drop_if_ext_0_0_3_5: 3000 e[0,3,5] + d[0,0,3,5] <= 3000
 no_drop_if_ext_0_0_3_6: 3000 e[0,3,6] + d[0,0,3,6] <= 3000
 no_drop_if_ext_0_0_3_7: 3000 e[0,3,7] + d[0,0,3,7] <= 3000
 no_drop_if_ext_0_0_3_8: 3000 e[0,3,8] + d[0,0,3,8] <= 3000
 no_drop_if_ext_0_0_3_9: 3000 e[0,3,9] + d[0,0,3,9] <= 3000
 no_drop_if_ext_0_0_4_0: 3000 e[0,4,0] + d[0,0,4,0] <= 3000
 no_drop_if_ext_0_0_4_1: 3000 e[0,4,1] + d[0,0,4,1] <= 3000
 no_drop_if_ext_0_0_4_2: 3000 e[0,4,2] + d[0,0,4,2] <= 3000
 no_drop_if_ext_0_0_4_3: 3000 e[0,4,3] + d[0,0,4,3] <= 3000
 no_drop_if_ext_0_0_4_4: 3000 e[0,4,4] + d[0,0,4,4] <= 3000
 no_drop_if_ext_0_0_4_5: 3000 e[0,4,5] + d[0,0,4,5] <= 3000
 no_drop_if_ext_0_0_4_6: 3000 e[0,4,6] + d[0,0,4,6] <= 3000
 no_drop_if_ext_0_0_4_7: 3000 e[0,4,7] + d[0,0,4,7] <= 3000
 no_drop_if_ext_0_0_4_8: 3000 e[0,4,8] + d[0,0,4,8] <= 3000
 no_drop_if_ext_0_0_4_9: 3000 e[0,4,9] + d[0,0,4,9] <= 3000
 no_drop_if_ext_0_1_0_0: 3000 e[1,0,0] + d[0,1,0,0] <= 3000
 no_drop_if_ext_0_1_0_1: 3000 e[1,0,1] + d[0,1,0,1] <= 3000
 no_drop_if_ext_0_1_0_2: 3000 e[1,0,2] + d[0,1,0,2] <= 3000
 no_drop_if_ext_0_1_0_3: 3000 e[1,0,3] + d[0,1,0,3] <= 3000
 no_drop_if_ext_0_1_0_4: 3000 e[1,0,4] + d[0,1,0,4] <= 3000
 no_drop_if_ext_0_1_0_5: 3000 e[1,0,5] + d[0,1,0,5] <= 3000
 no_drop_if_ext_0_1_0_6: 3000 e[1,0,6] + d[0,1,0,6] <= 3000
 no_drop_if_ext_0_1_0_7: 3000 e[1,0,7] + d[0,1,0,7] <= 3000
 no_drop_if_ext_0_1_0_8: 3000 e[1,0,8] + d[0,1,0,8] <= 3000
 no_drop_if_ext_0_1_0_9: 3000 e[1,0,9] + d[0,1,0,9] <= 3000
 no_drop_if_ext_0_1_1_0: 3000 e[1,1,0] + d[0,1,1,0] <= 3000
 no_drop_if_ext_0_1_1_1: 3000 e[1,1,1] + d[0,1,1,1] <= 3000
 no_drop_if_ext_0_1_1_2: 3000 e[1,1,2] + d[0,1,1,2] <= 3000
 no_drop_if_ext_0_1_1_3: 3000 e[1,1,3] + d[0,1,1,3] <= 3000
 no_drop_if_ext_0_1_1_4: 3000 e[1,1,4] + d[0,1,1,4] <= 3000
 no_drop_if_ext_0_1_1_5: 3000 e[1,1,5] + d[0,1,1,5] <= 3000
 no_drop_if_ext_0_1_1_6: 3000 e[1,1,6] + d[0,1,1,6] <= 3000
 no_drop_if_ext_0_1_1_7: 3000 e[1,1,7] + d[0,1,1,7] <= 3000
 no_drop_if_ext_0_1_1_8: 3000 e[1,1,8] + d[0,1,1,8] <= 3000
 no_drop_if_ext_0_1_1_9: 3000 e[1,1,9] + d[0,1,1,9] <= 3000
 no_drop_if_ext_0_1_2_0: 3000 e[1,2,0] + d[0,1,2,0] <= 3000
 no_drop_if_ext_0_1_2_1: 3000 e[1,2,1] + d[0,1,2,1] <= 3000
 no_drop_if_ext_0_1_2_2: 3000 e[1,2,2] + d[0,1,2,2] <= 3000
 no_drop_if_ext_0_1_2_3: 3000 e[1,2,3] + d[0,1,2,3] <= 3000
 no_drop_if_ext_0_1_2_4: 3000 e[1,2,4] + d[0,1,2,4] <= 3000
 no_drop_if_ext_0_1_2_5: 3000 e[1,2,5] + d[0,1,2,5] <= 3000
 no_drop_if_ext_0_1_2_6: 3000 e[1,2,6] + d[0,1,2,6] <= 3000
 no_drop_if_ext_0_1_2_7: 3000 e[1,2,7] + d[0,1,2,7] <= 3000
 no_drop_if_ext_0_1_2_8: 3000 e[1,2,8] + d[0,1,2,8] <= 3000
 no_drop_if_ext_0_1_2_9: 3000 e[1,2,9] + d[0,1,2,9] <= 3000
 no_drop_if_ext_0_1_3_0: 3000 e[1,3,0] + d[0,1,3,0] <= 3000
 no_drop_if_ext_0_1_3_1: 3000 e[1,3,1] + d[0,1,3,1] <= 3000
 no_drop_if_ext_0_1_3_2: 3000 e[1,3,2] + d[0,1,3,2] <= 3000
 no_drop_if_ext_0_1_3_3: 3000 e[1,3,3] + d[0,1,3,3] <= 3000
 no_drop_if_ext_0_1_3_4: 3000 e[1,3,4] + d[0,1,3,4] <= 3000
 no_drop_if_ext_0_1_3_5: 3000 e[1,3,5] + d[0,1,3,5] <= 3000
 no_drop_if_ext_0_1_3_6: 3000 e[1,3,6] + d[0,1,3,6] <= 3000
 no_drop_if_ext_0_1_3_7: 3000 e[1,3,7] + d[0,1,3,7] <= 3000
 no_drop_if_ext_0_1_3_8: 3000 e[1,3,8] + d[0,1,3,8] <= 3000
 no_drop_if_ext_0_1_3_9: 3000 e[1,3,9] + d[0,1,3,9] <= 3000
 no_drop_if_ext_0_1_4_0: 3000 e[1,4,0] + d[0,1,4,0] <= 3000
 no_drop_if_ext_0_1_4_1: 3000 e[1,4,1] + d[0,1,4,1] <= 3000
 no_drop_if_ext_0_1_4_2: 3000 e[1,4,2] + d[0,1,4,2] <= 3000
 no_drop_if_ext_0_1_4_3: 3000 e[1,4,3] + d[0,1,4,3] <= 3000
 no_drop_if_ext_0_1_4_4: 3000 e[1,4,4] + d[0,1,4,4] <= 3000
 no_drop_if_ext_0_1_4_5: 3000 e[1,4,5] + d[0,1,4,5] <= 3000
 no_drop_if_ext_0_1_4_6: 3000 e[1,4,6] + d[0,1,4,6] <= 3000
 no_drop_if_ext_0_1_4_7: 3000 e[1,4,7] + d[0,1,4,7] <= 3000
 no_drop_if_ext_0_1_4_8: 3000 e[1,4,8] + d[0,1,4,8] <= 3000
 no_drop_if_ext_0_1_4_9: 3000 e[1,4,9] + d[0,1,4,9] <= 3000
 no_drop_if_ext_0_2_0_0: 3000 e[2,0,0] + d[0,2,0,0] <= 3000
 no_drop_if_ext_0_2_0_1: 3000 e[2,0,1] + d[0,2,0,1] <= 3000
 no_drop_if_ext_0_2_0_2: 3000 e[2,0,2] + d[0,2,0,2] <= 3000
 no_drop_if_ext_0_2_0_3: 3000 e[2,0,3] + d[0,2,0,3] <= 3000
 no_drop_if_ext_0_2_0_4: 3000 e[2,0,4] + d[0,2,0,4] <= 3000
 no_drop_if_ext_0_2_0_5: 3000 e[2,0,5] + d[0,2,0,5] <= 3000
 no_drop_if_ext_0_2_0_6: 3000 e[2,0,6] + d[0,2,0,6] <= 3000
 no_drop_if_ext_0_2_0_7: 3000 e[2,0,7] + d[0,2,0,7] <= 3000
 no_drop_if_ext_0_2_0_8: 3000 e[2,0,8] + d[0,2,0,8] <= 3000
 no_drop_if_ext_0_2_0_9: 3000 e[2,0,9] + d[0,2,0,9] <= 3000
 no_drop_if_ext_0_2_1_0: 3000 e[2,1,0] + d[0,2,1,0] <= 3000
 no_drop_if_ext_0_2_1_1: 3000 e[2,1,1] + d[0,2,1,1] <= 3000
 no_drop_if_ext_0_2_1_2: 3000 e[2,1,2] + d[0,2,1,2] <= 3000
 no_drop_if_ext_0_2_1_3: 3000 e[2,1,3] + d[0,2,1,3] <= 3000
 no_drop_if_ext_0_2_1_4: 3000 e[2,1,4] + d[0,2,1,4] <= 3000
 no_drop_if_ext_0_2_1_5: 3000 e[2,1,5] + d[0,2,1,5] <= 3000
 no_drop_if_ext_0_2_1_6: 3000 e[2,1,6] + d[0,2,1,6] <= 3000
 no_drop_if_ext_0_2_1_7: 3000 e[2,1,7] + d[0,2,1,7] <= 3000
 no_drop_if_ext_0_2_1_8: 3000 e[2,1,8] + d[0,2,1,8] <= 3000
 no_drop_if_ext_0_2_1_9: 3000 e[2,1,9] + d[0,2,1,9] <= 3000
 no_drop_if_ext_0_2_2_0: 3000 e[2,2,0] + d[0,2,2,0] <= 3000
 no_drop_if_ext_0_2_2_1: 3000 e[2,2,1] + d[0,2,2,1] <= 3000
 no_drop_if_ext_0_2_2_2: 3000 e[2,2,2] + d[0,2,2,2] <= 3000
 no_drop_if_ext_0_2_2_3: 3000 e[2,2,3] + d[0,2,2,3] <= 3000
 no_drop_if_ext_0_2_2_4: 3000 e[2,2,4] + d[0,2,2,4] <= 3000
 no_drop_if_ext_0_2_2_5: 3000 e[2,2,5] + d[0,2,2,5] <= 3000
 no_drop_if_ext_0_2_2_6: 3000 e[2,2,6] + d[0,2,2,6] <= 3000
 no_drop_if_ext_0_2_2_7: 3000 e[2,2,7] + d[0,2,2,7] <= 3000
 no_drop_if_ext_0_2_2_8: 3000 e[2,2,8] + d[0,2,2,8] <= 3000
 no_drop_if_ext_0_2_2_9: 3000 e[2,2,9] + d[0,2,2,9] <= 3000
 no_drop_if_ext_0_2_3_0: 3000 e[2,3,0] + d[0,2,3,0] <= 3000
 no_drop_if_ext_0_2_3_1: 3000 e[2,3,1] + d[0,2,3,1] <= 3000
 no_drop_if_ext_0_2_3_2: 3000 e[2,3,2] + d[0,2,3,2] <= 3000
 no_drop_if_ext_0_2_3_3: 3000 e[2,3,3] + d[0,2,3,3] <= 3000
 no_drop_if_ext_0_2_3_4: 3000 e[2,3,4] + d[0,2,3,4] <= 3000
 no_drop_if_ext_0_2_3_5: 3000 e[2,3,5] + d[0,2,3,5] <= 3000
 no_drop_if_ext_0_2_3_6: 3000 e[2,3,6] + d[0,2,3,6] <= 3000
 no_drop_if_ext_0_2_3_7: 3000 e[2,3,7] + d[0,2,3,7] <= 3000
 no_drop_if_ext_0_2_3_8: 3000 e[2,3,8] + d[0,2,3,8] <= 3000
 no_drop_if_ext_0_2_3_9: 3000 e[2,3,9] + d[0,2,3,9] <= 3000
 no_drop_if_ext_0_2_4_0: 3000 e[2,4,0] + d[0,2,4,0] <= 3000
 no_drop_if_ext_0_2_4_1: 3000 e[2,4,1] + d[0,2,4,1] <= 3000
 no_drop_if_ext_0_2_4_2: 3000 e[2,4,2] + d[0,2,4,2] <= 3000
 no_drop_if_ext_0_2_4_3: 3000 e[2,4,3] + d[0,2,4,3] <= 3000
 no_drop_if_ext_0_2_4_4: 3000 e[2,4,4] + d[0,2,4,4] <= 3000
 no_drop_if_ext_0_2_4_5: 3000 e[2,4,5] + d[0,2,4,5] <= 3000
 no_drop_if_ext_0_2_4_6: 3000 e[2,4,6] + d[0,2,4,6] <= 3000
 no_drop_if_ext_0_2_4_7: 3000 e[2,4,7] + d[0,2,4,7] <= 3000
 no_drop_if_ext_0_2_4_8: 3000 e[2,4,8] + d[0,2,4,8] <= 3000
 no_drop_if_ext_0_2_4_9: 3000 e[2,4,9] + d[0,2,4,9] <= 3000
 no_drop_if_ext_0_3_0_0: 3000 e[3,0,0] + d[0,3,0,0] <= 3000
 no_drop_if_ext_0_3_0_1: 3000 e[3,0,1] + d[0,3,0,1] <= 3000
 no_drop_if_ext_0_3_0_2: 3000 e[3,0,2] + d[0,3,0,2] <= 3000
 no_drop_if_ext_0_3_0_3: 3000 e[3,0,3] + d[0,3,0,3] <= 3000
 no_drop_if_ext_0_3_0_4: 3000 e[3,0,4] + d[0,3,0,4] <= 3000
 no_drop_if_ext_0_3_0_5: 3000 e[3,0,5] + d[0,3,0,5] <= 3000
 no_drop_if_ext_0_3_0_6: 3000 e[3,0,6] + d[0,3,0,6] <= 3000
 no_drop_if_ext_0_3_0_7: 3000 e[3,0,7] + d[0,3,0,7] <= 3000
 no_drop_if_ext_0_3_0_8: 3000 e[3,0,8] + d[0,3,0,8] <= 3000
 no_drop_if_ext_0_3_0_9: 3000 e[3,0,9] + d[0,3,0,9] <= 3000
 no_drop_if_ext_0_3_1_0: 3000 e[3,1,0] + d[0,3,1,0] <= 3000
 no_drop_if_ext_0_3_1_1: 3000 e[3,1,1] + d[0,3,1,1] <= 3000
 no_drop_if_ext_0_3_1_2: 3000 e[3,1,2] + d[0,3,1,2] <= 3000
 no_drop_if_ext_0_3_1_3: 3000 e[3,1,3] + d[0,3,1,3] <= 3000
 no_drop_if_ext_0_3_1_4: 3000 e[3,1,4] + d[0,3,1,4] <= 3000
 no_drop_if_ext_0_3_1_5: 3000 e[3,1,5] + d[0,3,1,5] <= 3000
 no_drop_if_ext_0_3_1_6: 3000 e[3,1,6] + d[0,3,1,6] <= 3000
 no_drop_if_ext_0_3_1_7: 3000 e[3,1,7] + d[0,3,1,7] <= 3000
 no_drop_if_ext_0_3_1_8: 3000 e[3,1,8] + d[0,3,1,8] <= 3000
 no_drop_if_ext_0_3_1_9: 3000 e[3,1,9] + d[0,3,1,9] <= 3000
 no_drop_if_ext_0_3_2_0: 3000 e[3,2,0] + d[0,3,2,0] <= 3000
 no_drop_if_ext_0_3_2_1: 3000 e[3,2,1] + d[0,3,2,1] <= 3000
 no_drop_if_ext_0_3_2_2: 3000 e[3,2,2] + d[0,3,2,2] <= 3000
 no_drop_if_ext_0_3_2_3: 3000 e[3,2,3] + d[0,3,2,3] <= 3000
 no_drop_if_ext_0_3_2_4: 3000 e[3,2,4] + d[0,3,2,4] <= 3000
 no_drop_if_ext_0_3_2_5: 3000 e[3,2,5] + d[0,3,2,5] <= 3000
 no_drop_if_ext_0_3_2_6: 3000 e[3,2,6] + d[0,3,2,6] <= 3000
 no_drop_if_ext_0_3_2_7: 3000 e[3,2,7] + d[0,3,2,7] <= 3000
 no_drop_if_ext_0_3_2_8: 3000 e[3,2,8] + d[0,3,2,8] <= 3000
 no_drop_if_ext_0_3_2_9: 3000 e[3,2,9] + d[0,3,2,9] <= 3000
 no_drop_if_ext_0_3_3_0: 3000 e[3,3,0] + d[0,3,3,0] <= 3000
 no_drop_if_ext_0_3_3_1: 3000 e[3,3,1] + d[0,3,3,1] <= 3000
 no_drop_if_ext_0_3_3_2: 3000 e[3,3,2] + d[0,3,3,2] <= 3000
 no_drop_if_ext_0_3_3_3: 3000 e[3,3,3] + d[0,3,3,3] <= 3000
 no_drop_if_ext_0_3_3_4: 3000 e[3,3,4] + d[0,3,3,4] <= 3000
 no_drop_if_ext_0_3_3_5: 3000 e[3,3,5] + d[0,3,3,5] <= 3000
 no_drop_if_ext_0_3_3_6: 3000 e[3,3,6] + d[0,3,3,6] <= 3000
 no_drop_if_ext_0_3_3_7: 3000 e[3,3,7] + d[0,3,3,7] <= 3000
 no_drop_if_ext_0_3_3_8: 3000 e[3,3,8] + d[0,3,3,8] <= 3000
 no_drop_if_ext_0_3_3_9: 3000 e[3,3,9] + d[0,3,3,9] <= 3000
 no_drop_if_ext_0_3_4_0: 3000 e[3,4,0] + d[0,3,4,0] <= 3000
 no_drop_if_ext_0_3_4_1: 3000 e[3,4,1] + d[0,3,4,1] <= 3000
 no_drop_if_ext_0_3_4_2: 3000 e[3,4,2] + d[0,3,4,2] <= 3000
 no_drop_if_ext_0_3_4_3: 3000 e[3,4,3] + d[0,3,4,3] <= 3000
 no_drop_if_ext_0_3_4_4: 3000 e[3,4,4] + d[0,3,4,4] <= 3000
 no_drop_if_ext_0_3_4_5: 3000 e[3,4,5] + d[0,3,4,5] <= 3000
 no_drop_if_ext_0_3_4_6: 3000 e[3,4,6] + d[0,3,4,6] <= 3000
 no_drop_if_ext_0_3_4_7: 3000 e[3,4,7] + d[0,3,4,7] <= 3000
 no_drop_if_ext_0_3_4_8: 3000 e[3,4,8] + d[0,3,4,8] <= 3000
 no_drop_if_ext_0_3_4_9: 3000 e[3,4,9] + d[0,3,4,9] <= 3000
 no_drop_if_ext_0_4_0_0: 3000 e[4,0,0] + d[0,4,0,0] <= 3000
 no_drop_if_ext_0_4_0_1: 3000 e[4,0,1] + d[0,4,0,1] <= 3000
 no_drop_if_ext_0_4_0_2: 3000 e[4,0,2] + d[0,4,0,2] <= 3000
 no_drop_if_ext_0_4_0_3: 3000 e[4,0,3] + d[0,4,0,3] <= 3000
 no_drop_if_ext_0_4_0_4: 3000 e[4,0,4] + d[0,4,0,4] <= 3000
 no_drop_if_ext_0_4_0_5: 3000 e[4,0,5] + d[0,4,0,5] <= 3000
 no_drop_if_ext_0_4_0_6: 3000 e[4,0,6] + d[0,4,0,6] <= 3000
 no_drop_if_ext_0_4_0_7: 3000 e[4,0,7] + d[0,4,0,7] <= 3000
 no_drop_if_ext_0_4_0_8: 3000 e[4,0,8] + d[0,4,0,8] <= 3000
 no_drop_if_ext_0_4_0_9: 3000 e[4,0,9] + d[0,4,0,9] <= 3000
 no_drop_if_ext_0_4_1_0: 3000 e[4,1,0] + d[0,4,1,0] <= 3000
 no_drop_if_ext_0_4_1_1: 3000 e[4,1,1] + d[0,4,1,1] <= 3000
 no_drop_if_ext_0_4_1_2: 3000 e[4,1,2] + d[0,4,1,2] <= 3000
 no_drop_if_ext_0_4_1_3: 3000 e[4,1,3] + d[0,4,1,3] <= 3000
 no_drop_if_ext_0_4_1_4: 3000 e[4,1,4] + d[0,4,1,4] <= 3000
 no_drop_if_ext_0_4_1_5: 3000 e[4,1,5] + d[0,4,1,5] <= 3000
 no_drop_if_ext_0_4_1_6: 3000 e[4,1,6] + d[0,4,1,6] <= 3000
 no_drop_if_ext_0_4_1_7: 3000 e[4,1,7] + d[0,4,1,7] <= 3000
 no_drop_if_ext_0_4_1_8: 3000 e[4,1,8] + d[0,4,1,8] <= 3000
 no_drop_if_ext_0_4_1_9: 3000 e[4,1,9] + d[0,4,1,9] <= 3000
 no_drop_if_ext_0_4_2_0: 3000 e[4,2,0] + d[0,4,2,0] <= 3000
 no_drop_if_ext_0_4_2_1: 3000 e[4,2,1] + d[0,4,2,1] <= 3000
 no_drop_if_ext_0_4_2_2: 3000 e[4,2,2] + d[0,4,2,2] <= 3000
 no_drop_if_ext_0_4_2_3: 3000 e[4,2,3] + d[0,4,2,3] <= 3000
 no_drop_if_ext_0_4_2_4: 3000 e[4,2,4] + d[0,4,2,4] <= 3000
 no_drop_if_ext_0_4_2_5: 3000 e[4,2,5] + d[0,4,2,5] <= 3000
 no_drop_if_ext_0_4_2_6: 3000 e[4,2,6] + d[0,4,2,6] <= 3000
 no_drop_if_ext_0_4_2_7: 3000 e[4,2,7] + d[0,4,2,7] <= 3000
 no_drop_if_ext_0_4_2_8: 3000 e[4,2,8] + d[0,4,2,8] <= 3000
 no_drop_if_ext_0_4_2_9: 3000 e[4,2,9] + d[0,4,2,9] <= 3000
 no_drop_if_ext_0_4_3_0: 3000 e[4,3,0] + d[0,4,3,0] <= 3000
 no_drop_if_ext_0_4_3_1: 3000 e[4,3,1] + d[0,4,3,1] <= 3000
 no_drop_if_ext_0_4_3_2: 3000 e[4,3,2] + d[0,4,3,2] <= 3000
 no_drop_if_ext_0_4_3_3: 3000 e[4,3,3] + d[0,4,3,3] <= 3000
 no_drop_if_ext_0_4_3_4: 3000 e[4,3,4] + d[0,4,3,4] <= 3000
 no_drop_if_ext_0_4_3_5: 3000 e[4,3,5] + d[0,4,3,5] <= 3000
 no_drop_if_ext_0_4_3_6: 3000 e[4,3,6] + d[0,4,3,6] <= 3000
 no_drop_if_ext_0_4_3_7: 3000 e[4,3,7] + d[0,4,3,7] <= 3000
 no_drop_if_ext_0_4_3_8: 3000 e[4,3,8] + d[0,4,3,8] <= 3000
 no_drop_if_ext_0_4_3_9: 3000 e[4,3,9] + d[0,4,3,9] <= 3000
 no_drop_if_ext_0_4_4_0: 3000 e[4,4,0] + d[0,4,4,0] <= 3000
 no_drop_if_ext_0_4_4_1: 3000 e[4,4,1] + d[0,4,4,1] <= 3000
 no_drop_if_ext_0_4_4_2: 3000 e[4,4,2] + d[0,4,4,2] <= 3000
 no_drop_if_ext_0_4_4_3: 3000 e[4,4,3] + d[0,4,4,3] <= 3000
 no_drop_if_ext_0_4_4_4: 3000 e[4,4,4] + d[0,4,4,4] <= 3000
 no_drop_if_ext_0_4_4_5: 3000 e[4,4,5] + d[0,4,4,5] <= 3000
 no_drop_if_ext_0_4_4_6: 3000 e[4,4,6] + d[0,4,4,6] <= 3000
 no_drop_if_ext_0_4_4_7: 3000 e[4,4,7] + d[0,4,4,7] <= 3000
 no_drop_if_ext_0_4_4_8: 3000 e[4,4,8] + d[0,4,4,8] <= 3000
 no_drop_if_ext_0_4_4_9: 3000 e[4,4,9] + d[0,4,4,9] <= 3000
 no_drop_if_ext_1_0_0_0: 1000 e[0,0,0] + d[1,0,0,0] <= 1000
 no_drop_if_ext_1_0_0_1: 1000 e[0,0,1] + d[1,0,0,1] <= 1000
 no_drop_if_ext_1_0_0_2: 1000 e[0,0,2] + d[1,0,0,2] <= 1000
 no_drop_if_ext_1_0_0_3: 1000 e[0,0,3] + d[1,0,0,3] <= 1000
 no_drop_if_ext_1_0_0_4: 1000 e[0,0,4] + d[1,0,0,4] <= 1000
 no_drop_if_ext_1_0_0_5: 1000 e[0,0,5] + d[1,0,0,5] <= 1000
 no_drop_if_ext_1_0_0_6: 1000 e[0,0,6] + d[1,0,0,6] <= 1000
 no_drop_if_ext_1_0_0_7: 1000 e[0,0,7] + d[1,0,0,7] <= 1000
 no_drop_if_ext_1_0_0_8: 1000 e[0,0,8] + d[1,0,0,8] <= 1000
 no_drop_if_ext_1_0_0_9: 1000 e[0,0,9] + d[1,0,0,9] <= 1000
 no_drop_if_ext_1_0_1_0: 1000 e[0,1,0] + d[1,0,1,0] <= 1000
 no_drop_if_ext_1_0_1_1: 1000 e[0,1,1] + d[1,0,1,1] <= 1000
 no_drop_if_ext_1_0_1_2: 1000 e[0,1,2] + d[1,0,1,2] <= 1000
 no_drop_if_ext_1_0_1_3: 1000 e[0,1,3] + d[1,0,1,3] <= 1000
 no_drop_if_ext_1_0_1_4: 1000 e[0,1,4] + d[1,0,1,4] <= 1000
 no_drop_if_ext_1_0_1_5: 1000 e[0,1,5] + d[1,0,1,5] <= 1000
 no_drop_if_ext_1_0_1_6: 1000 e[0,1,6] + d[1,0,1,6] <= 1000
 no_drop_if_ext_1_0_1_7: 1000 e[0,1,7] + d[1,0,1,7] <= 1000
 no_drop_if_ext_1_0_1_8: 1000 e[0,1,8] + d[1,0,1,8] <= 1000
 no_drop_if_ext_1_0_1_9: 1000 e[0,1,9] + d[1,0,1,9] <= 1000
 no_drop_if_ext_1_0_2_0: 1000 e[0,2,0] + d[1,0,2,0] <= 1000
 no_drop_if_ext_1_0_2_1: 1000 e[0,2,1] + d[1,0,2,1] <= 1000
 no_drop_if_ext_1_0_2_2: 1000 e[0,2,2] + d[1,0,2,2] <= 1000
 no_drop_if_ext_1_0_2_3: 1000 e[0,2,3] + d[1,0,2,3] <= 1000
 no_drop_if_ext_1_0_2_4: 1000 e[0,2,4] + d[1,0,2,4] <= 1000
 no_drop_if_ext_1_0_2_5: 1000 e[0,2,5] + d[1,0,2,5] <= 1000
 no_drop_if_ext_1_0_2_6: 1000 e[0,2,6] + d[1,0,2,6] <= 1000
 no_drop_if_ext_1_0_2_7: 1000 e[0,2,7] + d[1,0,2,7] <= 1000
 no_drop_if_ext_1_0_2_8: 1000 e[0,2,8] + d[1,0,2,8] <= 1000
 no_drop_if_ext_1_0_2_9: 1000 e[0,2,9] + d[1,0,2,9] <= 1000
 no_drop_if_ext_1_0_3_0: 1000 e[0,3,0] + d[1,0,3,0] <= 1000
 no_drop_if_ext_1_0_3_1: 1000 e[0,3,1] + d[1,0,3,1] <= 1000
 no_drop_if_ext_1_0_3_2: 1000 e[0,3,2] + d[1,0,3,2] <= 1000
 no_drop_if_ext_1_0_3_3: 1000 e[0,3,3] + d[1,0,3,3] <= 1000
 no_drop_if_ext_1_0_3_4: 1000 e[0,3,4] + d[1,0,3,4] <= 1000
 no_drop_if_ext_1_0_3_5: 1000 e[0,3,5] + d[1,0,3,5] <= 1000
 no_drop_if_ext_1_0_3_6: 1000 e[0,3,6] + d[1,0,3,6] <= 1000
 no_drop_if_ext_1_0_3_7: 1000 e[0,3,7] + d[1,0,3,7] <= 1000
 no_drop_if_ext_1_0_3_8: 1000 e[0,3,8] + d[1,0,3,8] <= 1000
 no_drop_if_ext_1_0_3_9: 1000 e[0,3,9] + d[1,0,3,9] <= 1000
 no_drop_if_ext_1_0_4_0: 1000 e[0,4,0] + d[1,0,4,0] <= 1000
 no_drop_if_ext_1_0_4_1: 1000 e[0,4,1] + d[1,0,4,1] <= 1000
 no_drop_if_ext_1_0_4_2: 1000 e[0,4,2] + d[1,0,4,2] <= 1000
 no_drop_if_ext_1_0_4_3: 1000 e[0,4,3] + d[1,0,4,3] <= 1000
 no_drop_if_ext_1_0_4_4: 1000 e[0,4,4] + d[1,0,4,4] <= 1000
 no_drop_if_ext_1_0_4_5: 1000 e[0,4,5] + d[1,0,4,5] <= 1000
 no_drop_if_ext_1_0_4_6: 1000 e[0,4,6] + d[1,0,4,6] <= 1000
 no_drop_if_ext_1_0_4_7: 1000 e[0,4,7] + d[1,0,4,7] <= 1000
 no_drop_if_ext_1_0_4_8: 1000 e[0,4,8] + d[1,0,4,8] <= 1000
 no_drop_if_ext_1_0_4_9: 1000 e[0,4,9] + d[1,0,4,9] <= 1000
 no_drop_if_ext_1_1_0_0: 1000 e[1,0,0] + d[1,1,0,0] <= 1000
 no_drop_if_ext_1_1_0_1: 1000 e[1,0,1] + d[1,1,0,1] <= 1000
 no_drop_if_ext_1_1_0_2: 1000 e[1,0,2] + d[1,1,0,2] <= 1000
 no_drop_if_ext_1_1_0_3: 1000 e[1,0,3] + d[1,1,0,3] <= 1000
 no_drop_if_ext_1_1_0_4: 1000 e[1,0,4] + d[1,1,0,4] <= 1000
 no_drop_if_ext_1_1_0_5: 1000 e[1,0,5] + d[1,1,0,5] <= 1000
 no_drop_if_ext_1_1_0_6: 1000 e[1,0,6] + d[1,1,0,6] <= 1000
 no_drop_if_ext_1_1_0_7: 1000 e[1,0,7] + d[1,1,0,7] <= 1000
 no_drop_if_ext_1_1_0_8: 1000 e[1,0,8] + d[1,1,0,8] <= 1000
 no_drop_if_ext_1_1_0_9: 1000 e[1,0,9] + d[1,1,0,9] <= 1000
 no_drop_if_ext_1_1_1_0: 1000 e[1,1,0] + d[1,1,1,0] <= 1000
 no_drop_if_ext_1_1_1_1: 1000 e[1,1,1] + d[1,1,1,1] <= 1000
 no_drop_if_ext_1_1_1_2: 1000 e[1,1,2] + d[1,1,1,2] <= 1000
 no_drop_if_ext_1_1_1_3: 1000 e[1,1,3] + d[1,1,1,3] <= 1000
 no_drop_if_ext_1_1_1_4: 1000 e[1,1,4] + d[1,1,1,4] <= 1000
 no_drop_if_ext_1_1_1_5: 1000 e[1,1,5] + d[1,1,1,5] <= 1000
 no_drop_if_ext_1_1_1_6: 1000 e[1,1,6] + d[1,1,1,6] <= 1000
 no_drop_if_ext_1_1_1_7: 1000 e[1,1,7] + d[1,1,1,7] <= 1000
 no_drop_if_ext_1_1_1_8: 1000 e[1,1,8] + d[1,1,1,8] <= 1000
 no_drop_if_ext_1_1_1_9: 1000 e[1,1,9] + d[1,1,1,9] <= 1000
 no_drop_if_ext_1_1_2_0: 1000 e[1,2,0] + d[1,1,2,0] <= 1000
 no_drop_if_ext_1_1_2_1: 1000 e[1,2,1] + d[1,1,2,1] <= 1000
 no_drop_if_ext_1_1_2_2: 1000 e[1,2,2] + d[1,1,2,2] <= 1000
 no_drop_if_ext_1_1_2_3: 1000 e[1,2,3] + d[1,1,2,3] <= 1000
 no_drop_if_ext_1_1_2_4: 1000 e[1,2,4] + d[1,1,2,4] <= 1000
 no_drop_if_ext_1_1_2_5: 1000 e[1,2,5] + d[1,1,2,5] <= 1000
 no_drop_if_ext_1_1_2_6: 1000 e[1,2,6] + d[1,1,2,6] <= 1000
 no_drop_if_ext_1_1_2_7: 1000 e[1,2,7] + d[1,1,2,7] <= 1000
 no_drop_if_ext_1_1_2_8: 1000 e[1,2,8] + d[1,1,2,8] <= 1000
 no_drop_if_ext_1_1_2_9: 1000 e[1,2,9] + d[1,1,2,9] <= 1000
 no_drop_if_ext_1_1_3_0: 1000 e[1,3,0] + d[1,1,3,0] <= 1000
 no_drop_if_ext_1_1_3_1: 1000 e[1,3,1] + d[1,1,3,1] <= 1000
 no_drop_if_ext_1_1_3_2: 1000 e[1,3,2] + d[1,1,3,2] <= 1000
 no_drop_if_ext_1_1_3_3: 1000 e[1,3,3] + d[1,1,3,3] <= 1000
 no_drop_if_ext_1_1_3_4: 1000 e[1,3,4] + d[1,1,3,4] <= 1000
 no_drop_if_ext_1_1_3_5: 1000 e[1,3,5] + d[1,1,3,5] <= 1000
 no_drop_if_ext_1_1_3_6: 1000 e[1,3,6] + d[1,1,3,6] <= 1000
 no_drop_if_ext_1_1_3_7: 1000 e[1,3,7] + d[1,1,3,7] <= 1000
 no_drop_if_ext_1_1_3_8: 1000 e[1,3,8] + d[1,1,3,8] <= 1000
 no_drop_if_ext_1_1_3_9: 1000 e[1,3,9] + d[1,1,3,9] <= 1000
 no_drop_if_ext_1_1_4_0: 1000 e[1,4,0] + d[1,1,4,0] <= 1000
 no_drop_if_ext_1_1_4_1: 1000 e[1,4,1] + d[1,1,4,1] <= 1000
 no_drop_if_ext_1_1_4_2: 1000 e[1,4,2] + d[1,1,4,2] <= 1000
 no_drop_if_ext_1_1_4_3: 1000 e[1,4,3] + d[1,1,4,3] <= 1000
 no_drop_if_ext_1_1_4_4: 1000 e[1,4,4] + d[1,1,4,4] <= 1000
 no_drop_if_ext_1_1_4_5: 1000 e[1,4,5] + d[1,1,4,5] <= 1000
 no_drop_if_ext_1_1_4_6: 1000 e[1,4,6] + d[1,1,4,6] <= 1000
 no_drop_if_ext_1_1_4_7: 1000 e[1,4,7] + d[1,1,4,7] <= 1000
 no_drop_if_ext_1_1_4_8: 1000 e[1,4,8] + d[1,1,4,8] <= 1000
 no_drop_if_ext_1_1_4_9: 1000 e[1,4,9] + d[1,1,4,9] <= 1000
 no_drop_if_ext_1_2_0_0: 1000 e[2,0,0] + d[1,2,0,0] <= 1000
 no_drop_if_ext_1_2_0_1: 1000 e[2,0,1] + d[1,2,0,1] <= 1000
 no_drop_if_ext_1_2_0_2: 1000 e[2,0,2] + d[1,2,0,2] <= 1000
 no_drop_if_ext_1_2_0_3: 1000 e[2,0,3] + d[1,2,0,3] <= 1000
 no_drop_if_ext_1_2_0_4: 1000 e[2,0,4] + d[1,2,0,4] <= 1000
 no_drop_if_ext_1_2_0_5: 1000 e[2,0,5] + d[1,2,0,5] <= 1000
 no_drop_if_ext_1_2_0_6: 1000 e[2,0,6] + d[1,2,0,6] <= 1000
 no_drop_if_ext_1_2_0_7: 1000 e[2,0,7] + d[1,2,0,7] <= 1000
 no_drop_if_ext_1_2_0_8: 1000 e[2,0,8] + d[1,2,0,8] <= 1000
 no_drop_if_ext_1_2_0_9: 1000 e[2,0,9] + d[1,2,0,9] <= 1000
 no_drop_if_ext_1_2_1_0: 1000 e[2,1,0] + d[1,2,1,0] <= 1000
 no_drop_if_ext_1_2_1_1: 1000 e[2,1,1] + d[1,2,1,1] <= 1000
 no_drop_if_ext_1_2_1_2: 1000 e[2,1,2] + d[1,2,1,2] <= 1000
 no_drop_if_ext_1_2_1_3: 1000 e[2,1,3] + d[1,2,1,3] <= 1000
 no_drop_if_ext_1_2_1_4: 1000 e[2,1,4] + d[1,2,1,4] <= 1000
 no_drop_if_ext_1_2_1_5: 1000 e[2,1,5] + d[1,2,1,5] <= 1000
 no_drop_if_ext_1_2_1_6: 1000 e[2,1,6] + d[1,2,1,6] <= 1000
 no_drop_if_ext_1_2_1_7: 1000 e[2,1,7] + d[1,2,1,7] <= 1000
 no_drop_if_ext_1_2_1_8: 1000 e[2,1,8] + d[1,2,1,8] <= 1000
 no_drop_if_ext_1_2_1_9: 1000 e[2,1,9] + d[1,2,1,9] <= 1000
 no_drop_if_ext_1_2_2_0: 1000 e[2,2,0] + d[1,2,2,0] <= 1000
 no_drop_if_ext_1_2_2_1: 1000 e[2,2,1] + d[1,2,2,1] <= 1000
 no_drop_if_ext_1_2_2_2: 1000 e[2,2,2] + d[1,2,2,2] <= 1000
 no_drop_if_ext_1_2_2_3: 1000 e[2,2,3] + d[1,2,2,3] <= 1000
 no_drop_if_ext_1_2_2_4: 1000 e[2,2,4] + d[1,2,2,4] <= 1000
 no_drop_if_ext_1_2_2_5: 1000 e[2,2,5] + d[1,2,2,5] <= 1000
 no_drop_if_ext_1_2_2_6: 1000 e[2,2,6] + d[1,2,2,6] <= 1000
 no_drop_if_ext_1_2_2_7: 1000 e[2,2,7] + d[1,2,2,7] <= 1000
 no_drop_if_ext_1_2_2_8: 1000 e[2,2,8] + d[1,2,2,8] <= 1000
 no_drop_if_ext_1_2_2_9: 1000 e[2,2,9] + d[1,2,2,9] <= 1000
 no_drop_if_ext_1_2_3_0: 1000 e[2,3,0] + d[1,2,3,0] <= 1000
 no_drop_if_ext_1_2_3_1: 1000 e[2,3,1] + d[1,2,3,1] <= 1000
 no_drop_if_ext_1_2_3_2: 1000 e[2,3,2] + d[1,2,3,2] <= 1000
 no_drop_if_ext_1_2_3_3: 1000 e[2,3,3] + d[1,2,3,3] <= 1000
 no_drop_if_ext_1_2_3_4: 1000 e[2,3,4] + d[1,2,3,4] <= 1000
 no_drop_if_ext_1_2_3_5: 1000 e[2,3,5] + d[1,2,3,5] <= 1000
 no_drop_if_ext_1_2_3_6: 1000 e[2,3,6] + d[1,2,3,6] <= 1000
 no_drop_if_ext_1_2_3_7: 1000 e[2,3,7] + d[1,2,3,7] <= 1000
 no_drop_if_ext_1_2_3_8: 1000 e[2,3,8] + d[1,2,3,8] <= 1000
 no_drop_if_ext_1_2_3_9: 1000 e[2,3,9] + d[1,2,3,9] <= 1000
 no_drop_if_ext_1_2_4_0: 1000 e[2,4,0] + d[1,2,4,0] <= 1000
 no_drop_if_ext_1_2_4_1: 1000 e[2,4,1] + d[1,2,4,1] <= 1000
 no_drop_if_ext_1_2_4_2: 1000 e[2,4,2] + d[1,2,4,2] <= 1000
 no_drop_if_ext_1_2_4_3: 1000 e[2,4,3] + d[1,2,4,3] <= 1000
 no_drop_if_ext_1_2_4_4: 1000 e[2,4,4] + d[1,2,4,4] <= 1000
 no_drop_if_ext_1_2_4_5: 1000 e[2,4,5] + d[1,2,4,5] <= 1000
 no_drop_if_ext_1_2_4_6: 1000 e[2,4,6] + d[1,2,4,6] <= 1000
 no_drop_if_ext_1_2_4_7: 1000 e[2,4,7] + d[1,2,4,7] <= 1000
 no_drop_if_ext_1_2_4_8: 1000 e[2,4,8] + d[1,2,4,8] <= 1000
 no_drop_if_ext_1_2_4_9: 1000 e[2,4,9] + d[1,2,4,9] <= 1000
 no_drop_if_ext_1_3_0_0: 1000 e[3,0,0] + d[1,3,0,0] <= 1000
 no_drop_if_ext_1_3_0_1: 1000 e[3,0,1] + d[1,3,0,1] <= 1000
 no_drop_if_ext_1_3_0_2: 1000 e[3,0,2] + d[1,3,0,2] <= 1000
 no_drop_if_ext_1_3_0_3: 1000 e[3,0,3] + d[1,3,0,3] <= 1000
 no_drop_if_ext_1_3_0_4: 1000 e[3,0,4] + d[1,3,0,4] <= 1000
 no_drop_if_ext_1_3_0_5: 1000 e[3,0,5] + d[1,3,0,5] <= 1000
 no_drop_if_ext_1_3_0_6: 1000 e[3,0,6] + d[1,3,0,6] <= 1000
 no_drop_if_ext_1_3_0_7: 1000 e[3,0,7] + d[1,3,0,7] <= 1000
 no_drop_if_ext_1_3_0_8: 1000 e[3,0,8] + d[1,3,0,8] <= 1000
 no_drop_if_ext_1_3_0_9: 1000 e[3,0,9] + d[1,3,0,9] <= 1000
 no_drop_if_ext_1_3_1_0: 1000 e[3,1,0] + d[1,3,1,0] <= 1000
 no_drop_if_ext_1_3_1_1: 1000 e[3,1,1] + d[1,3,1,1] <= 1000
 no_drop_if_ext_1_3_1_2: 1000 e[3,1,2] + d[1,3,1,2] <= 1000
 no_drop_if_ext_1_3_1_3: 1000 e[3,1,3] + d[1,3,1,3] <= 1000
 no_drop_if_ext_1_3_1_4: 1000 e[3,1,4] + d[1,3,1,4] <= 1000
 no_drop_if_ext_1_3_1_5: 1000 e[3,1,5] + d[1,3,1,5] <= 1000
 no_drop_if_ext_1_3_1_6: 1000 e[3,1,6] + d[1,3,1,6] <= 1000
 no_drop_if_ext_1_3_1_7: 1000 e[3,1,7] + d[1,3,1,7] <= 1000
 no_drop_if_ext_1_3_1_8: 1000 e[3,1,8] + d[1,3,1,8] <= 1000
 no_drop_if_ext_1_3_1_9: 1000 e[3,1,9] + d[1,3,1,9] <= 1000
 no_drop_if_ext_1_3_2_0: 1000 e[3,2,0] + d[1,3,2,0] <= 1000
 no_drop_if_ext_1_3_2_1: 1000 e[3,2,1] + d[1,3,2,1] <= 1000
 no_drop_if_ext_1_3_2_2: 1000 e[3,2,2] + d[1,3,2,2] <= 1000
 no_drop_if_ext_1_3_2_3: 1000 e[3,2,3] + d[1,3,2,3] <= 1000
 no_drop_if_ext_1_3_2_4: 1000 e[3,2,4] + d[1,3,2,4] <= 1000
 no_drop_if_ext_1_3_2_5: 1000 e[3,2,5] + d[1,3,2,5] <= 1000
 no_drop_if_ext_1_3_2_6: 1000 e[3,2,6] + d[1,3,2,6] <= 1000
 no_drop_if_ext_1_3_2_7: 1000 e[3,2,7] + d[1,3,2,7] <= 1000
 no_drop_if_ext_1_3_2_8: 1000 e[3,2,8] + d[1,3,2,8] <= 1000
 no_drop_if_ext_1_3_2_9: 1000 e[3,2,9] + d[1,3,2,9] <= 1000
 no_drop_if_ext_1_3_3_0: 1000 e[3,3,0] + d[1,3,3,0] <= 1000
 no_drop_if_ext_1_3_3_1: 1000 e[3,3,1] + d[1,3,3,1] <= 1000
 no_drop_if_ext_1_3_3_2: 1000 e[3,3,2] + d[1,3,3,2] <= 1000
 no_drop_if_ext_1_3_3_3: 1000 e[3,3,3] + d[1,3,3,3] <= 1000
 no_drop_if_ext_1_3_3_4: 1000 e[3,3,4] + d[1,3,3,4] <= 1000
 no_drop_if_ext_1_3_3_5: 1000 e[3,3,5] + d[1,3,3,5] <= 1000
 no_drop_if_ext_1_3_3_6: 1000 e[3,3,6] + d[1,3,3,6] <= 1000
 no_drop_if_ext_1_3_3_7: 1000 e[3,3,7] + d[1,3,3,7] <= 1000
 no_drop_if_ext_1_3_3_8: 1000 e[3,3,8] + d[1,3,3,8] <= 1000
 no_drop_if_ext_1_3_3_9: 1000 e[3,3,9] + d[1,3,3,9] <= 1000
 no_drop_if_ext_1_3_4_0: 1000 e[3,4,0] + d[1,3,4,0] <= 1000
 no_drop_if_ext_1_3_4_1: 1000 e[3,4,1] + d[1,3,4,1] <= 1000
 no_drop_if_ext_1_3_4_2: 1000 e[3,4,2] + d[1,3,4,2] <= 1000
 no_drop_if_ext_1_3_4_3: 1000 e[3,4,3] + d[1,3,4,3] <= 1000
 no_drop_if_ext_1_3_4_4: 1000 e[3,4,4] + d[1,3,4,4] <= 1000
 no_drop_if_ext_1_3_4_5: 1000 e[3,4,5] + d[1,3,4,5] <= 1000
 no_drop_if_ext_1_3_4_6: 1000 e[3,4,6] + d[1,3,4,6] <= 1000
 no_drop_if_ext_1_3_4_7: 1000 e[3,4,7] + d[1,3,4,7] <= 1000
 no_drop_if_ext_1_3_4_8: 1000 e[3,4,8] + d[1,3,4,8] <= 1000
 no_drop_if_ext_1_3_4_9: 1000 e[3,4,9] + d[1,3,4,9] <= 1000
 no_drop_if_ext_1_4_0_0: 1000 e[4,0,0] + d[1,4,0,0] <= 1000
 no_drop_if_ext_1_4_0_1: 1000 e[4,0,1] + d[1,4,0,1] <= 1000
 no_drop_if_ext_1_4_0_2: 1000 e[4,0,2] + d[1,4,0,2] <= 1000
 no_drop_if_ext_1_4_0_3: 1000 e[4,0,3] + d[1,4,0,3] <= 1000
 no_drop_if_ext_1_4_0_4: 1000 e[4,0,4] + d[1,4,0,4] <= 1000
 no_drop_if_ext_1_4_0_5: 1000 e[4,0,5] + d[1,4,0,5] <= 1000
 no_drop_if_ext_1_4_0_6: 1000 e[4,0,6] + d[1,4,0,6] <= 1000
 no_drop_if_ext_1_4_0_7: 1000 e[4,0,7] + d[1,4,0,7] <= 1000
 no_drop_if_ext_1_4_0_8: 1000 e[4,0,8] + d[1,4,0,8] <= 1000
 no_drop_if_ext_1_4_0_9: 1000 e[4,0,9] + d[1,4,0,9] <= 1000
 no_drop_if_ext_1_4_1_0: 1000 e[4,1,0] + d[1,4,1,0] <= 1000
 no_drop_if_ext_1_4_1_1: 1000 e[4,1,1] + d[1,4,1,1] <= 1000
 no_drop_if_ext_1_4_1_2: 1000 e[4,1,2] + d[1,4,1,2] <= 1000
 no_drop_if_ext_1_4_1_3: 1000 e[4,1,3] + d[1,4,1,3] <= 1000
 no_drop_if_ext_1_4_1_4: 1000 e[4,1,4] + d[1,4,1,4] <= 1000
 no_drop_if_ext_1_4_1_5: 1000 e[4,1,5] + d[1,4,1,5] <= 1000
 no_drop_if_ext_1_4_1_6: 1000 e[4,1,6] + d[1,4,1,6] <= 1000
 no_drop_if_ext_1_4_1_7: 1000 e[4,1,7] + d[1,4,1,7] <= 1000
 no_drop_if_ext_1_4_1_8: 1000 e[4,1,8] + d[1,4,1,8] <= 1000
 no_drop_if_ext_1_4_1_9: 1000 e[4,1,9] + d[1,4,1,9] <= 1000
 no_drop_if_ext_1_4_2_0: 1000 e[4,2,0] + d[1,4,2,0] <= 1000
 no_drop_if_ext_1_4_2_1: 1000 e[4,2,1] + d[1,4,2,1] <= 1000
 no_drop_if_ext_1_4_2_2: 1000 e[4,2,2] + d[1,4,2,2] <= 1000
 no_drop_if_ext_1_4_2_3: 1000 e[4,2,3] + d[1,4,2,3] <= 1000
 no_drop_if_ext_1_4_2_4: 1000 e[4,2,4] + d[1,4,2,4] <= 1000
 no_drop_if_ext_1_4_2_5: 1000 e[4,2,5] + d[1,4,2,5] <= 1000
 no_drop_if_ext_1_4_2_6: 1000 e[4,2,6] + d[1,4,2,6] <= 1000
 no_drop_if_ext_1_4_2_7: 1000 e[4,2,7] + d[1,4,2,7] <= 1000
 no_drop_if_ext_1_4_2_8: 1000 e[4,2,8] + d[1,4,2,8] <= 1000
 no_drop_if_ext_1_4_2_9: 1000 e[4,2,9] + d[1,4,2,9] <= 1000
 no_drop_if_ext_1_4_3_0: 1000 e[4,3,0] + d[1,4,3,0] <= 1000
 no_drop_if_ext_1_4_3_1: 1000 e[4,3,1] + d[1,4,3,1] <= 1000
 no_drop_if_ext_1_4_3_2: 1000 e[4,3,2] + d[1,4,3,2] <= 1000
 no_drop_if_ext_1_4_3_3: 1000 e[4,3,3] + d[1,4,3,3] <= 1000
 no_drop_if_ext_1_4_3_4: 1000 e[4,3,4] + d[1,4,3,4] <= 1000
 no_drop_if_ext_1_4_3_5: 1000 e[4,3,5] + d[1,4,3,5] <= 1000
 no_drop_if_ext_1_4_3_6: 1000 e[4,3,6] + d[1,4,3,6] <= 1000
 no_drop_if_ext_1_4_3_7: 1000 e[4,3,7] + d[1,4,3,7] <= 1000
 no_drop_if_ext_1_4_3_8: 1000 e[4,3,8] + d[1,4,3,8] <= 1000
 no_drop_if_ext_1_4_3_9: 1000 e[4,3,9] + d[1,4,3,9] <= 1000
 no_drop_if_ext_1_4_4_0: 1000 e[4,4,0] + d[1,4,4,0] <= 1000
 no_drop_if_ext_1_4_4_1: 1000 e[4,4,1] + d[1,4,4,1] <= 1000
 no_drop_if_ext_1_4_4_2: 1000 e[4,4,2] + d[1,4,4,2] <= 1000
 no_drop_if_ext_1_4_4_3: 1000 e[4,4,3] + d[1,4,4,3] <= 1000
 no_drop_if_ext_1_4_4_4: 1000 e[4,4,4] + d[1,4,4,4] <= 1000
 no_drop_if_ext_1_4_4_5: 1000 e[4,4,5] + d[1,4,4,5] <= 1000
 no_drop_if_ext_1_4_4_6: 1000 e[4,4,6] + d[1,4,4,6] <= 1000
 no_drop_if_ext_1_4_4_7: 1000 e[4,4,7] + d[1,4,4,7] <= 1000
 no_drop_if_ext_1_4_4_8: 1000 e[4,4,8] + d[1,4,4,8] <= 1000
 no_drop_if_ext_1_4_4_9: 1000 e[4,4,9] + d[1,4,4,9] <= 1000
 no_drop_if_ext_2_0_0_0: 1000 e[0,0,0] + d[2,0,0,0] <= 1000
 no_drop_if_ext_2_0_0_1: 1000 e[0,0,1] + d[2,0,0,1] <= 1000
 no_drop_if_ext_2_0_0_2: 1000 e[0,0,2] + d[2,0,0,2] <= 1000
 no_drop_if_ext_2_0_0_3: 1000 e[0,0,3] + d[2,0,0,3] <= 1000
 no_drop_if_ext_2_0_0_4: 1000 e[0,0,4] + d[2,0,0,4] <= 1000
 no_drop_if_ext_2_0_0_5: 1000 e[0,0,5] + d[2,0,0,5] <= 1000
 no_drop_if_ext_2_0_0_6: 1000 e[0,0,6] + d[2,0,0,6] <= 1000
 no_drop_if_ext_2_0_0_7: 1000 e[0,0,7] + d[2,0,0,7] <= 1000
 no_drop_if_ext_2_0_0_8: 1000 e[0,0,8] + d[2,0,0,8] <= 1000
 no_drop_if_ext_2_0_0_9: 1000 e[0,0,9] + d[2,0,0,9] <= 1000
 no_drop_if_ext_2_0_1_0: 1000 e[0,1,0] + d[2,0,1,0] <= 1000
 no_drop_if_ext_2_0_1_1: 1000 e[0,1,1] + d[2,0,1,1] <= 1000
 no_drop_if_ext_2_0_1_2: 1000 e[0,1,2] + d[2,0,1,2] <= 1000
 no_drop_if_ext_2_0_1_3: 1000 e[0,1,3] + d[2,0,1,3] <= 1000
 no_drop_if_ext_2_0_1_4: 1000 e[0,1,4] + d[2,0,1,4] <= 1000
 no_drop_if_ext_2_0_1_5: 1000 e[0,1,5] + d[2,0,1,5] <= 1000
 no_drop_if_ext_2_0_1_6: 1000 e[0,1,6] + d[2,0,1,6] <= 1000
 no_drop_if_ext_2_0_1_7: 1000 e[0,1,7] + d[2,0,1,7] <= 1000
 no_drop_if_ext_2_0_1_8: 1000 e[0,1,8] + d[2,0,1,8] <= 1000
 no_drop_if_ext_2_0_1_9: 1000 e[0,1,9] + d[2,0,1,9] <= 1000
 no_drop_if_ext_2_0_2_0: 1000 e[0,2,0] + d[2,0,2,0] <= 1000
 no_drop_if_ext_2_0_2_1: 1000 e[0,2,1] + d[2,0,2,1] <= 1000
 no_drop_if_ext_2_0_2_2: 1000 e[0,2,2] + d[2,0,2,2] <= 1000
 no_drop_if_ext_2_0_2_3: 1000 e[0,2,3] + d[2,0,2,3] <= 1000
 no_drop_if_ext_2_0_2_4: 1000 e[0,2,4] + d[2,0,2,4] <= 1000
 no_drop_if_ext_2_0_2_5: 1000 e[0,2,5] + d[2,0,2,5] <= 1000
 no_drop_if_ext_2_0_2_6: 1000 e[0,2,6] + d[2,0,2,6] <= 1000
 no_drop_if_ext_2_0_2_7: 1000 e[0,2,7] + d[2,0,2,7] <= 1000
 no_drop_if_ext_2_0_2_8: 1000 e[0,2,8] + d[2,0,2,8] <= 1000
 no_drop_if_ext_2_0_2_9: 1000 e[0,2,9] + d[2,0,2,9] <= 1000
 no_drop_if_ext_2_0_3_0: 1000 e[0,3,0] + d[2,0,3,0] <= 1000
 no_drop_if_ext_2_0_3_1: 1000 e[0,3,1] + d[2,0,3,1] <= 1000
 no_drop_if_ext_2_0_3_2: 1000 e[0,3,2] + d[2,0,3,2] <= 1000
 no_drop_if_ext_2_0_3_3: 1000 e[0,3,3] + d[2,0,3,3] <= 1000
 no_drop_if_ext_2_0_3_4: 1000 e[0,3,4] + d[2,0,3,4] <= 1000
 no_drop_if_ext_2_0_3_5: 1000 e[0,3,5] + d[2,0,3,5] <= 1000
 no_drop_if_ext_2_0_3_6: 1000 e[0,3,6] + d[2,0,3,6] <= 1000
 no_drop_if_ext_2_0_3_7: 1000 e[0,3,7] + d[2,0,3,7] <= 1000
 no_drop_if_ext_2_0_3_8: 1000 e[0,3,8] + d[2,0,3,8] <= 1000
 no_drop_if_ext_2_0_3_9: 1000 e[0,3,9] + d[2,0,3,9] <= 1000
 no_drop_if_ext_2_0_4_0: 1000 e[0,4,0] + d[2,0,4,0] <= 1000
 no_drop_if_ext_2_0_4_1: 1000 e[0,4,1] + d[2,0,4,1] <= 1000
 no_drop_if_ext_2_0_4_2: 1000 e[0,4,2] + d[2,0,4,2] <= 1000
 no_drop_if_ext_2_0_4_3: 1000 e[0,4,3] + d[2,0,4,3] <= 1000
 no_drop_if_ext_2_0_4_4: 1000 e[0,4,4] + d[2,0,4,4] <= 1000
 no_drop_if_ext_2_0_4_5: 1000 e[0,4,5] + d[2,0,4,5] <= 1000
 no_drop_if_ext_2_0_4_6: 1000 e[0,4,6] + d[2,0,4,6] <= 1000
 no_drop_if_ext_2_0_4_7: 1000 e[0,4,7] + d[2,0,4,7] <= 1000
 no_drop_if_ext_2_0_4_8: 1000 e[0,4,8] + d[2,0,4,8] <= 1000
 no_drop_if_ext_2_0_4_9: 1000 e[0,4,9] + d[2,0,4,9] <= 1000
 no_drop_if_ext_2_1_0_0: 1000 e[1,0,0] + d[2,1,0,0] <= 1000
 no_drop_if_ext_2_1_0_1: 1000 e[1,0,1] + d[2,1,0,1] <= 1000
 no_drop_if_ext_2_1_0_2: 1000 e[1,0,2] + d[2,1,0,2] <= 1000
 no_drop_if_ext_2_1_0_3: 1000 e[1,0,3] + d[2,1,0,3] <= 1000
 no_drop_if_ext_2_1_0_4: 1000 e[1,0,4] + d[2,1,0,4] <= 1000
 no_drop_if_ext_2_1_0_5: 1000 e[1,0,5] + d[2,1,0,5] <= 1000
 no_drop_if_ext_2_1_0_6: 1000 e[1,0,6] + d[2,1,0,6] <= 1000
 no_drop_if_ext_2_1_0_7: 1000 e[1,0,7] + d[2,1,0,7] <= 1000
 no_drop_if_ext_2_1_0_8: 1000 e[1,0,8] + d[2,1,0,8] <= 1000
 no_drop_if_ext_2_1_0_9: 1000 e[1,0,9] + d[2,1,0,9] <= 1000
 no_drop_if_ext_2_1_1_0: 1000 e[1,1,0] + d[2,1,1,0] <= 1000
 no_drop_if_ext_2_1_1_1: 1000 e[1,1,1] + d[2,1,1,1] <= 1000
 no_drop_if_ext_2_1_1_2: 1000 e[1,1,2] + d[2,1,1,2] <= 1000
 no_drop_if_ext_2_1_1_3: 1000 e[1,1,3] + d[2,1,1,3] <= 1000
 no_drop_if_ext_2_1_1_4: 1000 e[1,1,4] + d[2,1,1,4] <= 1000
 no_drop_if_ext_2_1_1_5: 1000 e[1,1,5] + d[2,1,1,5] <= 1000
 no_drop_if_ext_2_1_1_6: 1000 e[1,1,6] + d[2,1,1,6] <= 1000
 no_drop_if_ext_2_1_1_7: 1000 e[1,1,7] + d[2,1,1,7] <= 1000
 no_drop_if_ext_2_1_1_8: 1000 e[1,1,8] + d[2,1,1,8] <= 1000
 no_drop_if_ext_2_1_1_9: 1000 e[1,1,9] + d[2,1,1,9] <= 1000
 no_drop_if_ext_2_1_2_0: 1000 e[1,2,0] + d[2,1,2,0] <= 1000
 no_drop_if_ext_2_1_2_1: 1000 e[1,2,1] + d[2,1,2,1] <= 1000
 no_drop_if_ext_2_1_2_2: 1000 e[1,2,2] + d[2,1,2,2] <= 1000
 no_drop_if_ext_2_1_2_3: 1000 e[1,2,3] + d[2,1,2,3] <= 1000
 no_drop_if_ext_2_1_2_4: 1000 e[1,2,4] + d[2,1,2,4] <= 1000
 no_drop_if_ext_2_1_2_5: 1000 e[1,2,5] + d[2,1,2,5] <= 1000
 no_drop_if_ext_2_1_2_6: 1000 e[1,2,6] + d[2,1,2,6] <= 1000
 no_drop_if_ext_2_1_2_7: 1000 e[1,2,7] + d[2,1,2,7] <= 1000
 no_drop_if_ext_2_1_2_8: 1000 e[1,2,8] + d[2,1,2,8] <= 1000
 no_drop_if_ext_2_1_2_9: 1000 e[1,2,9] + d[2,1,2,9] <= 1000
 no_drop_if_ext_2_1_3_0: 1000 e[1,3,0] + d[2,1,3,0] <= 1000
 no_drop_if_ext_2_1_3_1: 1000 e[1,3,1] + d[2,1,3,1] <= 1000
 no_drop_if_ext_2_1_3_2: 1000 e[1,3,2] + d[2,1,3,2] <= 1000
 no_drop_if_ext_2_1_3_3: 1000 e[1,3,3] + d[2,1,3,3] <= 1000
 no_drop_if_ext_2_1_3_4: 1000 e[1,3,4] + d[2,1,3,4] <= 1000
 no_drop_if_ext_2_1_3_5: 1000 e[1,3,5] + d[2,1,3,5] <= 1000
 no_drop_if_ext_2_1_3_6: 1000 e[1,3,6] + d[2,1,3,6] <= 1000
 no_drop_if_ext_2_1_3_7: 1000 e[1,3,7] + d[2,1,3,7] <= 1000
 no_drop_if_ext_2_1_3_8: 1000 e[1,3,8] + d[2,1,3,8] <= 1000
 no_drop_if_ext_2_1_3_9: 1000 e[1,3,9] + d[2,1,3,9] <= 1000
 no_drop_if_ext_2_1_4_0: 1000 e[1,4,0] + d[2,1,4,0] <= 1000
 no_drop_if_ext_2_1_4_1: 1000 e[1,4,1] + d[2,1,4,1] <= 1000
 no_drop_if_ext_2_1_4_2: 1000 e[1,4,2] + d[2,1,4,2] <= 1000
 no_drop_if_ext_2_1_4_3: 1000 e[1,4,3] + d[2,1,4,3] <= 1000
 no_drop_if_ext_2_1_4_4: 1000 e[1,4,4] + d[2,1,4,4] <= 1000
 no_drop_if_ext_2_1_4_5: 1000 e[1,4,5] + d[2,1,4,5] <= 1000
 no_drop_if_ext_2_1_4_6: 1000 e[1,4,6] + d[2,1,4,6] <= 1000
 no_drop_if_ext_2_1_4_7: 1000 e[1,4,7] + d[2,1,4,7] <= 1000
 no_drop_if_ext_2_1_4_8: 1000 e[1,4,8] + d[2,1,4,8] <= 1000
 no_drop_if_ext_2_1_4_9: 1000 e[1,4,9] + d[2,1,4,9] <= 1000
 no_drop_if_ext_2_2_0_0: 1000 e[2,0,0] + d[2,2,0,0] <= 1000
 no_drop_if_ext_2_2_0_1: 1000 e[2,0,1] + d[2,2,0,1] <= 1000
 no_drop_if_ext_2_2_0_2: 1000 e[2,0,2] + d[2,2,0,2] <= 1000
 no_drop_if_ext_2_2_0_3: 1000 e[2,0,3] + d[2,2,0,3] <= 1000
 no_drop_if_ext_2_2_0_4: 1000 e[2,0,4] + d[2,2,0,4] <= 1000
 no_drop_if_ext_2_2_0_5: 1000 e[2,0,5] + d[2,2,0,5] <= 1000
 no_drop_if_ext_2_2_0_6: 1000 e[2,0,6] + d[2,2,0,6] <= 1000
 no_drop_if_ext_2_2_0_7: 1000 e[2,0,7] + d[2,2,0,7] <= 1000
 no_drop_if_ext_2_2_0_8: 1000 e[2,0,8] + d[2,2,0,8] <= 1000
 no_drop_if_ext_2_2_0_9: 1000 e[2,0,9] + d[2,2,0,9] <= 1000
 no_drop_if_ext_2_2_1_0: 1000 e[2,1,0] + d[2,2,1,0] <= 1000
 no_drop_if_ext_2_2_1_1: 1000 e[2,1,1] + d[2,2,1,1] <= 1000
 no_drop_if_ext_2_2_1_2: 1000 e[2,1,2] + d[2,2,1,2] <= 1000
 no_drop_if_ext_2_2_1_3: 1000 e[2,1,3] + d[2,2,1,3] <= 1000
 no_drop_if_ext_2_2_1_4: 1000 e[2,1,4] + d[2,2,1,4] <= 1000
 no_drop_if_ext_2_2_1_5: 1000 e[2,1,5] + d[2,2,1,5] <= 1000
 no_drop_if_ext_2_2_1_6: 1000 e[2,1,6] + d[2,2,1,6] <= 1000
 no_drop_if_ext_2_2_1_7: 1000 e[2,1,7] + d[2,2,1,7] <= 1000
 no_drop_if_ext_2_2_1_8: 1000 e[2,1,8] + d[2,2,1,8] <= 1000
 no_drop_if_ext_2_2_1_9: 1000 e[2,1,9] + d[2,2,1,9] <= 1000
 no_drop_if_ext_2_2_2_0: 1000 e[2,2,0] + d[2,2,2,0] <= 1000
 no_drop_if_ext_2_2_2_1: 1000 e[2,2,1] + d[2,2,2,1] <= 1000
 no_drop_if_ext_2_2_2_2: 1000 e[2,2,2] + d[2,2,2,2] <= 1000
 no_drop_if_ext_2_2_2_3: 1000 e[2,2,3] + d[2,2,2,3] <= 1000
 no_drop_if_ext_2_2_2_4: 1000 e[2,2,4] + d[2,2,2,4] <= 1000
 no_drop_if_ext_2_2_2_5: 1000 e[2,2,5] + d[2,2,2,5] <= 1000
 no_drop_if_ext_2_2_2_6: 1000 e[2,2,6] + d[2,2,2,6] <= 1000
 no_drop_if_ext_2_2_2_7: 1000 e[2,2,7] + d[2,2,2,7] <= 1000
 no_drop_if_ext_2_2_2_8: 1000 e[2,2,8] + d[2,2,2,8] <= 1000
 no_drop_if_ext_2_2_2_9: 1000 e[2,2,9] + d[2,2,2,9] <= 1000
 no_drop_if_ext_2_2_3_0: 1000 e[2,3,0] + d[2,2,3,0] <= 1000
 no_drop_if_ext_2_2_3_1: 1000 e[2,3,1] + d[2,2,3,1] <= 1000
 no_drop_if_ext_2_2_3_2: 1000 e[2,3,2] + d[2,2,3,2] <= 1000
 no_drop_if_ext_2_2_3_3: 1000 e[2,3,3] + d[2,2,3,3] <= 1000
 no_drop_if_ext_2_2_3_4: 1000 e[2,3,4] + d[2,2,3,4] <= 1000
 no_drop_if_ext_2_2_3_5: 1000 e[2,3,5] + d[2,2,3,5] <= 1000
 no_drop_if_ext_2_2_3_6: 1000 e[2,3,6] + d[2,2,3,6] <= 1000
 no_drop_if_ext_2_2_3_7: 1000 e[2,3,7] + d[2,2,3,7] <= 1000
 no_drop_if_ext_2_2_3_8: 1000 e[2,3,8] + d[2,2,3,8] <= 1000
 no_drop_if_ext_2_2_3_9: 1000 e[2,3,9] + d[2,2,3,9] <= 1000
 no_drop_if_ext_2_2_4_0: 1000 e[2,4,0] + d[2,2,4,0] <= 1000
 no_drop_if_ext_2_2_4_1: 1000 e[2,4,1] + d[2,2,4,1] <= 1000
 no_drop_if_ext_2_2_4_2: 1000 e[2,4,2] + d[2,2,4,2] <= 1000
 no_drop_if_ext_2_2_4_3: 1000 e[2,4,3] + d[2,2,4,3] <= 1000
 no_drop_if_ext_2_2_4_4: 1000 e[2,4,4] + d[2,2,4,4] <= 1000
 no_drop_if_ext_2_2_4_5: 1000 e[2,4,5] + d[2,2,4,5] <= 1000
 no_drop_if_ext_2_2_4_6: 1000 e[2,4,6] + d[2,2,4,6] <= 1000
 no_drop_if_ext_2_2_4_7: 1000 e[2,4,7] + d[2,2,4,7] <= 1000
 no_drop_if_ext_2_2_4_8: 1000 e[2,4,8] + d[2,2,4,8] <= 1000
 no_drop_if_ext_2_2_4_9: 1000 e[2,4,9] + d[2,2,4,9] <= 1000
 no_drop_if_ext_2_3_0_0: 1000 e[3,0,0] + d[2,3,0,0] <= 1000
 no_drop_if_ext_2_3_0_1: 1000 e[3,0,1] + d[2,3,0,1] <= 1000
 no_drop_if_ext_2_3_0_2: 1000 e[3,0,2] + d[2,3,0,2] <= 1000
 no_drop_if_ext_2_3_0_3: 1000 e[3,0,3] + d[2,3,0,3] <= 1000
 no_drop_if_ext_2_3_0_4: 1000 e[3,0,4] + d[2,3,0,4] <= 1000
 no_drop_if_ext_2_3_0_5: 1000 e[3,0,5] + d[2,3,0,5] <= 1000
 no_drop_if_ext_2_3_0_6: 1000 e[3,0,6] + d[2,3,0,6] <= 1000
 no_drop_if_ext_2_3_0_7: 1000 e[3,0,7] + d[2,3,0,7] <= 1000
 no_drop_if_ext_2_3_0_8: 1000 e[3,0,8] + d[2,3,0,8] <= 1000
 no_drop_if_ext_2_3_0_9: 1000 e[3,0,9] + d[2,3,0,9] <= 1000
 no_drop_if_ext_2_3_1_0: 1000 e[3,1,0] + d[2,3,1,0] <= 1000
 no_drop_if_ext_2_3_1_1: 1000 e[3,1,1] + d[2,3,1,1] <= 1000
 no_drop_if_ext_2_3_1_2: 1000 e[3,1,2] + d[2,3,1,2] <= 1000
 no_drop_if_ext_2_3_1_3: 1000 e[3,1,3] + d[2,3,1,3] <= 1000
 no_drop_if_ext_2_3_1_4: 1000 e[3,1,4] + d[2,3,1,4] <= 1000
 no_drop_if_ext_2_3_1_5: 1000 e[3,1,5] + d[2,3,1,5] <= 1000
 no_drop_if_ext_2_3_1_6: 1000 e[3,1,6] + d[2,3,1,6] <= 1000
 no_drop_if_ext_2_3_1_7: 1000 e[3,1,7] + d[2,3,1,7] <= 1000
 no_drop_if_ext_2_3_1_8: 1000 e[3,1,8] + d[2,3,1,8] <= 1000
 no_drop_if_ext_2_3_1_9: 1000 e[3,1,9] + d[2,3,1,9] <= 1000
 no_drop_if_ext_2_3_2_0: 1000 e[3,2,0] + d[2,3,2,0] <= 1000
 no_drop_if_ext_2_3_2_1: 1000 e[3,2,1] + d[2,3,2,1] <= 1000
 no_drop_if_ext_2_3_2_2: 1000 e[3,2,2] + d[2,3,2,2] <= 1000
 no_drop_if_ext_2_3_2_3: 1000 e[3,2,3] + d[2,3,2,3] <= 1000
 no_drop_if_ext_2_3_2_4: 1000 e[3,2,4] + d[2,3,2,4] <= 1000
 no_drop_if_ext_2_3_2_5: 1000 e[3,2,5] + d[2,3,2,5] <= 1000
 no_drop_if_ext_2_3_2_6: 1000 e[3,2,6] + d[2,3,2,6] <= 1000
 no_drop_if_ext_2_3_2_7: 1000 e[3,2,7] + d[2,3,2,7] <= 1000
 no_drop_if_ext_2_3_2_8: 1000 e[3,2,8] + d[2,3,2,8] <= 1000
 no_drop_if_ext_2_3_2_9: 1000 e[3,2,9] + d[2,3,2,9] <= 1000
 no_drop_if_ext_2_3_3_0: 1000 e[3,3,0] + d[2,3,3,0] <= 1000
 no_drop_if_ext_2_3_3_1: 1000 e[3,3,1] + d[2,3,3,1] <= 1000
 no_drop_if_ext_2_3_3_2: 1000 e[3,3,2] + d[2,3,3,2] <= 1000
 no_drop_if_ext_2_3_3_3: 1000 e[3,3,3] + d[2,3,3,3] <= 1000
 no_drop_if_ext_2_3_3_4: 1000 e[3,3,4] + d[2,3,3,4] <= 1000
 no_drop_if_ext_2_3_3_5: 1000 e[3,3,5] + d[2,3,3,5] <= 1000
 no_drop_if_ext_2_3_3_6: 1000 e[3,3,6] + d[2,3,3,6] <= 1000
 no_drop_if_ext_2_3_3_7: 1000 e[3,3,7] + d[2,3,3,7] <= 1000
 no_drop_if_ext_2_3_3_8: 1000 e[3,3,8] + d[2,3,3,8] <= 1000
 no_drop_if_ext_2_3_3_9: 1000 e[3,3,9] + d[2,3,3,9] <= 1000
 no_drop_if_ext_2_3_4_0: 1000 e[3,4,0] + d[2,3,4,0] <= 1000
 no_drop_if_ext_2_3_4_1: 1000 e[3,4,1] + d[2,3,4,1] <= 1000
 no_drop_if_ext_2_3_4_2: 1000 e[3,4,2] + d[2,3,4,2] <= 1000
 no_drop_if_ext_2_3_4_3: 1000 e[3,4,3] + d[2,3,4,3] <= 1000
 no_drop_if_ext_2_3_4_4: 1000 e[3,4,4] + d[2,3,4,4] <= 1000
 no_drop_if_ext_2_3_4_5: 1000 e[3,4,5] + d[2,3,4,5] <= 1000
 no_drop_if_ext_2_3_4_6: 1000 e[3,4,6] + d[2,3,4,6] <= 1000
 no_drop_if_ext_2_3_4_7: 1000 e[3,4,7] + d[2,3,4,7] <= 1000
 no_drop_if_ext_2_3_4_8: 1000 e[3,4,8] + d[2,3,4,8] <= 1000
 no_drop_if_ext_2_3_4_9: 1000 e[3,4,9] + d[2,3,4,9] <= 1000
 no_drop_if_ext_2_4_0_0: 1000 e[4,0,0] + d[2,4,0,0] <= 1000
 no_drop_if_ext_2_4_0_1: 1000 e[4,0,1] + d[2,4,0,1] <= 1000
 no_drop_if_ext_2_4_0_2: 1000 e[4,0,2] + d[2,4,0,2] <= 1000
 no_drop_if_ext_2_4_0_3: 1000 e[4,0,3] + d[2,4,0,3] <= 1000
 no_drop_if_ext_2_4_0_4: 1000 e[4,0,4] + d[2,4,0,4] <= 1000
 no_drop_if_ext_2_4_0_5: 1000 e[4,0,5] + d[2,4,0,5] <= 1000
 no_drop_if_ext_2_4_0_6: 1000 e[4,0,6] + d[2,4,0,6] <= 1000
 no_drop_if_ext_2_4_0_7: 1000 e[4,0,7] + d[2,4,0,7] <= 1000
 no_drop_if_ext_2_4_0_8: 1000 e[4,0,8] + d[2,4,0,8] <= 1000
 no_drop_if_ext_2_4_0_9: 1000 e[4,0,9] + d[2,4,0,9] <= 1000
 no_drop_if_ext_2_4_1_0: 1000 e[4,1,0] + d[2,4,1,0] <= 1000
 no_drop_if_ext_2_4_1_1: 1000 e[4,1,1] + d[2,4,1,1] <= 1000
 no_drop_if_ext_2_4_1_2: 1000 e[4,1,2] + d[2,4,1,2] <= 1000
 no_drop_if_ext_2_4_1_3: 1000 e[4,1,3] + d[2,4,1,3] <= 1000
 no_drop_if_ext_2_4_1_4: 1000 e[4,1,4] + d[2,4,1,4] <= 1000
 no_drop_if_ext_2_4_1_5: 1000 e[4,1,5] + d[2,4,1,5] <= 1000
 no_drop_if_ext_2_4_1_6: 1000 e[4,1,6] + d[2,4,1,6] <= 1000
 no_drop_if_ext_2_4_1_7: 1000 e[4,1,7] + d[2,4,1,7] <= 1000
 no_drop_if_ext_2_4_1_8: 1000 e[4,1,8] + d[2,4,1,8] <= 1000
 no_drop_if_ext_2_4_1_9: 1000 e[4,1,9] + d[2,4,1,9] <= 1000
 no_drop_if_ext_2_4_2_0: 1000 e[4,2,0] + d[2,4,2,0] <= 1000
 no_drop_if_ext_2_4_2_1: 1000 e[4,2,1] + d[2,4,2,1] <= 1000
 no_drop_if_ext_2_4_2_2: 1000 e[4,2,2] + d[2,4,2,2] <= 1000
 no_drop_if_ext_2_4_2_3: 1000 e[4,2,3] + d[2,4,2,3] <= 1000
 no_drop_if_ext_2_4_2_4: 1000 e[4,2,4] + d[2,4,2,4] <= 1000
 no_drop_if_ext_2_4_2_5: 1000 e[4,2,5] + d[2,4,2,5] <= 1000
 no_drop_if_ext_2_4_2_6: 1000 e[4,2,6] + d[2,4,2,6] <= 1000
 no_drop_if_ext_2_4_2_7: 1000 e[4,2,7] + d[2,4,2,7] <= 1000
 no_drop_if_ext_2_4_2_8: 1000 e[4,2,8] + d[2,4,2,8] <= 1000
 no_drop_if_ext_2_4_2_9: 1000 e[4,2,9] + d[2,4,2,9] <= 1000
 no_drop_if_ext_2_4_3_0: 1000 e[4,3,0] + d[2,4,3,0] <= 1000
 no_drop_if_ext_2_4_3_1: 1000 e[4,3,1] + d[2,4,3,1] <= 1000
 no_drop_if_ext_2_4_3_2: 1000 e[4,3,2] + d[2,4,3,2] <= 1000
 no_drop_if_ext_2_4_3_3: 1000 e[4,3,3] + d[2,4,3,3] <= 1000
 no_drop_if_ext_2_4_3_4: 1000 e[4,3,4] + d[2,4,3,4] <= 1000
 no_drop_if_ext_2_4_3_5: 1000 e[4,3,5] + d[2,4,3,5] <= 1000
 no_drop_if_ext_2_4_3_6: 1000 e[4,3,6] + d[2,4,3,6] <= 1000
 no_drop_if_ext_2_4_3_7: 1000 e[4,3,7] + d[2,4,3,7] <= 1000
 no_drop_if_ext_2_4_3_8: 1000 e[4,3,8] + d[2,4,3,8] <= 1000
 no_drop_if_ext_2_4_3_9: 1000 e[4,3,9] + d[2,4,3,9] <= 1000
 no_drop_if_ext_2_4_4_0: 1000 e[4,4,0] + d[2,4,4,0] <= 1000
 no_drop_if_ext_2_4_4_1: 1000 e[4,4,1] + d[2,4,4,1] <= 1000
 no_drop_if_ext_2_4_4_2: 1000 e[4,4,2] + d[2,4,4,2] <= 1000
 no_drop_if_ext_2_4_4_3: 1000 e[4,4,3] + d[2,4,4,3] <= 1000
 no_drop_if_ext_2_4_4_4: 1000 e[4,4,4] + d[2,4,4,4] <= 1000
 no_drop_if_ext_2_4_4_5: 1000 e[4,4,5] + d[2,4,4,5] <= 1000
 no_drop_if_ext_2_4_4_6: 1000 e[4,4,6] + d[2,4,4,6] <= 1000
 no_drop_if_ext_2_4_4_7: 1000 e[4,4,7] + d[2,4,4,7] <= 1000
 no_drop_if_ext_2_4_4_8: 1000 e[4,4,8] + d[2,4,4,8] <= 1000
 no_drop_if_ext_2_4_4_9: 1000 e[4,4,9] + d[2,4,4,9] <= 1000
 q_consume_lb_0_0: - q[0,0] + q[0,1] + d[0,0,0,0] + d[0,0,1,0] + d[0,0,2,0]
   + d[0,0,3,0] + d[0,0,4,0] + d[0,1,0,0] + d[0,1,1,0] + d[0,1,2,0]
   + d[0,1,3,0] + d[0,1,4,0] + d[0,2,0,0] + d[0,2,1,0] + d[0,2,2,0]
   + d[0,2,3,0] + d[0,2,4,0] + d[0,3,0,0] + d[0,3,1,0] + d[0,3,2,0]
   + d[0,3,3,0] + d[0,3,4,0] + d[0,4,0,0] + d[0,4,1,0] + d[0,4,2,0]
   + d[0,4,3,0] + d[0,4,4,0] + 17000 wat[0,0] >= 0
 q_consume_ub_0_0: - q[0,0] + q[0,1] + d[0,0,0,0] + d[0,0,1,0] + d[0,0,2,0]
   + d[0,0,3,0] + d[0,0,4,0] + d[0,1,0,0] + d[0,1,1,0] + d[0,1,2,0]
   + d[0,1,3,0] + d[0,1,4,0] + d[0,2,0,0] + d[0,2,1,0] + d[0,2,2,0]
   + d[0,2,3,0] + d[0,2,4,0] + d[0,3,0,0] + d[0,3,1,0] + d[0,3,2,0]
   + d[0,3,3,0] + d[0,3,4,0] + d[0,4,0,0] + d[0,4,1,0] + d[0,4,2,0]
   + d[0,4,3,0] + d[0,4,4,0] - 17000 wat[0,0] <= 0
 q_refill_0_0: q[0,1] - 17000 wat[0,0] >= -2000
 q_cap_0_0: q[0,1] <= 15000
 q_consume_lb_0_1: - q[0,1] + q[0,2] + d[0,0,0,1] + d[0,0,1,1] + d[0,0,2,1]
   + d[0,0,3,1] + d[0,0,4,1] + d[0,1,0,1] + d[0,1,1,1] + d[0,1,2,1]
   + d[0,1,3,1] + d[0,1,4,1] + d[0,2,0,1] + d[0,2,1,1] + d[0,2,2,1]
   + d[0,2,3,1] + d[0,2,4,1] + d[0,3,0,1] + d[0,3,1,1] + d[0,3,2,1]
   + d[0,3,3,1] + d[0,3,4,1] + d[0,4,0,1] + d[0,4,1,1] + d[0,4,2,1]
   + d[0,4,3,1] + d[0,4,4,1] + 17000 wat[0,1] >= 0
 q_consume_ub_0_1: - q[0,1] + q[0,2] + d[0,0,0,1] + d[0,0,1,1] + d[0,0,2,1]
   + d[0,0,3,1] + d[0,0,4,1] + d[0,1,0,1] + d[0,1,1,1] + d[0,1,2,1]
   + d[0,1,3,1] + d[0,1,4,1] + d[0,2,0,1] + d[0,2,1,1] + d[0,2,2,1]
   + d[0,2,3,1] + d[0,2,4,1] + d[0,3,0,1] + d[0,3,1,1] + d[0,3,2,1]
   + d[0,3,3,1] + d[0,3,4,1] + d[0,4,0,1] + d[0,4,1,1] + d[0,4,2,1]
   + d[0,4,3,1] + d[0,4,4,1] - 17000 wat[0,1] <= 0
 q_refill_0_1: q[0,2] - 17000 wat[0,1] >= -2000
 q_cap_0_1: q[0,2] <= 15000
 q_consume_lb_0_2: - q[0,2] + q[0,3] + d[0,0,0,2] + d[0,0,1,2] + d[0,0,2,2]
   + d[0,0,3,2] + d[0,0,4,2] + d[0,1,0,2] + d[0,1,1,2] + d[0,1,2,2]
   + d[0,1,3,2] + d[0,1,4,2] + d[0,2,0,2] + d[0,2,1,2] + d[0,2,2,2]
   + d[0,2,3,2] + d[0,2,4,2] + d[0,3,0,2] + d[0,3,1,2] + d[0,3,2,2]
   + d[0,3,3,2] + d[0,3,4,2] + d[0,4,0,2] + d[0,4,1,2] + d[0,4,2,2]
   + d[0,4,3,2] + d[0,4,4,2] + 17000 wat[0,2] >= 0
 q_consume_ub_0_2: - q[0,2] + q[0,3] + d[0,0,0,2] + d[0,0,1,2] + d[0,0,2,2]
   + d[0,0,3,2] + d[0,0,4,2] + d[0,1,0,2] + d[0,1,1,2] + d[0,1,2,2]
   + d[0,1,3,2] + d[0,1,4,2] + d[0,2,0,2] + d[0,2,1,2] + d[0,2,2,2]
   + d[0,2,3,2] + d[0,2,4,2] + d[0,3,0,2] + d[0,3,1,2] + d[0,3,2,2]
   + d[0,3,3,2] + d[0,3,4,2] + d[0,4,0,2] + d[0,4,1,2] + d[0,4,2,2]
   + d[0,4,3,2] + d[0,4,4,2] - 17000 wat[0,2] <= 0
 q_refill_0_2: q[0,3] - 17000 wat[0,2] >= -2000
 q_cap_0_2: q[0,3] <= 15000
 q_consume_lb_0_3: - q[0,3] + q[0,4] + d[0,0,0,3] + d[0,0,1,3] + d[0,0,2,3]
   + d[0,0,3,3] + d[0,0,4,3] + d[0,1,0,3] + d[0,1,1,3] + d[0,1,2,3]
   + d[0,1,3,3] + d[0,1,4,3] + d[0,2,0,3] + d[0,2,1,3] + d[0,2,2,3]
   + d[0,2,3,3] + d[0,2,4,3] + d[0,3,0,3] + d[0,3,1,3] + d[0,3,2,3]
   + d[0,3,3,3] + d[0,3,4,3] + d[0,4,0,3] + d[0,4,1,3] + d[0,4,2,3]
   + d[0,4,3,3] + d[0,4,4,3] + 17000 wat[0,3] >= 0
 q_consume_ub_0_3: - q[0,3] + q[0,4] + d[0,0,0,3] + d[0,0,1,3] + d[0,0,2,3]
   + d[0,0,3,3] + d[0,0,4,3] + d[0,1,0,3] + d[0,1,1,3] + d[0,1,2,3]
   + d[0,1,3,3] + d[0,1,4,3] + d[0,2,0,3] + d[0,2,1,3] + d[0,2,2,3]
   + d[0,2,3,3] + d[0,2,4,3] + d[0,3,0,3] + d[0,3,1,3] + d[0,3,2,3]
   + d[0,3,3,3] + d[0,3,4,3] + d[0,4,0,3] + d[0,4,1,3] + d[0,4,2,3]
   + d[0,4,3,3] + d[0,4,4,3] - 17000 wat[0,3] <= 0
 q_refill_0_3: q[0,4] - 17000 wat[0,3] >= -2000
 q_cap_0_3: q[0,4] <= 15000
 q_consume_lb_0_4: - q[0,4] + q[0,5] + d[0,0,0,4] + d[0,0,1,4] + d[0,0,2,4]
   + d[0,0,3,4] + d[0,0,4,4] + d[0,1,0,4] + d[0,1,1,4] + d[0,1,2,4]
   + d[0,1,3,4] + d[0,1,4,4] + d[0,2,0,4] + d[0,2,1,4] + d[0,2,2,4]
   + d[0,2,3,4] + d[0,2,4,4] + d[0,3,0,4] + d[0,3,1,4] + d[0,3,2,4]
   + d[0,3,3,4] + d[0,3,4,4] + d[0,4,0,4] + d[0,4,1,4] + d[0,4,2,4]
   + d[0,4,3,4] + d[0,4,4,4] + 17000 wat[0,4] >= 0
 q_consume_ub_0_4: - q[0,4] + q[0,5] + d[0,0,0,4] + d[0,0,1,4] + d[0,0,2,4]
   + d[0,0,3,4] + d[0,0,4,4] + d[0,1,0,4] + d[0,1,1,4] + d[0,1,2,4]
   + d[0,1,3,4] + d[0,1,4,4] + d[0,2,0,4] + d[0,2,1,4] + d[0,2,2,4]
   + d[0,2,3,4] + d[0,2,4,4] + d[0,3,0,4] + d[0,3,1,4] + d[0,3,2,4]
   + d[0,3,3,4] + d[0,3,4,4] + d[0,4,0,4] + d[0,4,1,4] + d[0,4,2,4]
   + d[0,4,3,4] + d[0,4,4,4] - 17000 wat[0,4] <= 0
 q_refill_0_4: q[0,5] - 17000 wat[0,4] >= -2000
 q_cap_0_4: q[0,5] <= 15000
 q_consume_lb_0_5: - q[0,5] + q[0,6] + d[0,0,0,5] + d[0,0,1,5] + d[0,0,2,5]
   + d[0,0,3,5] + d[0,0,4,5] + d[0,1,0,5] + d[0,1,1,5] + d[0,1,2,5]
   + d[0,1,3,5] + d[0,1,4,5] + d[0,2,0,5] + d[0,2,1,5] + d[0,2,2,5]
   + d[0,2,3,5] + d[0,2,4,5] + d[0,3,0,5] + d[0,3,1,5] + d[0,3,2,5]
   + d[0,3,3,5] + d[0,3,4,5] + d[0,4,0,5] + d[0,4,1,5] + d[0,4,2,5]
   + d[0,4,3,5] + d[0,4,4,5] + 17000 wat[0,5] >= 0
 q_consume_ub_0_5: - q[0,5] + q[0,6] + d[0,0,0,5] + d[0,0,1,5] + d[0,0,2,5]
   + d[0,0,3,5] + d[0,0,4,5] + d[0,1,0,5] + d[0,1,1,5] + d[0,1,2,5]
   + d[0,1,3,5] + d[0,1,4,5] + d[0,2,0,5] + d[0,2,1,5] + d[0,2,2,5]
   + d[0,2,3,5] + d[0,2,4,5] + d[0,3,0,5] + d[0,3,1,5] + d[0,3,2,5]
   + d[0,3,3,5] + d[0,3,4,5] + d[0,4,0,5] + d[0,4,1,5] + d[0,4,2,5]
   + d[0,4,3,5] + d[0,4,4,5] - 17000 wat[0,5] <= 0
 q_refill_0_5: q[0,6] - 17000 wat[0,5] >= -2000
 q_cap_0_5: q[0,6] <= 15000
 q_consume_lb_0_6: - q[0,6] + q[0,7] + d[0,0,0,6] + d[0,0,1,6] + d[0,0,2,6]
   + d[0,0,3,6] + d[0,0,4,6] + d[0,1,0,6] + d[0,1,1,6] + d[0,1,2,6]
   + d[0,1,3,6] + d[0,1,4,6] + d[0,2,0,6] + d[0,2,1,6] + d[0,2,2,6]
   + d[0,2,3,6] + d[0,2,4,6] + d[0,3,0,6] + d[0,3,1,6] + d[0,3,2,6]
   + d[0,3,3,6] + d[0,3,4,6] + d[0,4,0,6] + d[0,4,1,6] + d[0,4,2,6]
   + d[0,4,3,6] + d[0,4,4,6] + 17000 wat[0,6] >= 0
 q_consume_ub_0_6: - q[0,6] + q[0,7] + d[0,0,0,6] + d[0,0,1,6] + d[0,0,2,6]
   + d[0,0,3,6] + d[0,0,4,6] + d[0,1,0,6] + d[0,1,1,6] + d[0,1,2,6]
   + d[0,1,3,6] + d[0,1,4,6] + d[0,2,0,6] + d[0,2,1,6] + d[0,2,2,6]
   + d[0,2,3,6] + d[0,2,4,6] + d[0,3,0,6] + d[0,3,1,6] + d[0,3,2,6]
   + d[0,3,3,6] + d[0,3,4,6] + d[0,4,0,6] + d[0,4,1,6] + d[0,4,2,6]
   + d[0,4,3,6] + d[0,4,4,6] - 17000 wat[0,6] <= 0
 q_refill_0_6: q[0,7] - 17000 wat[0,6] >= -2000
 q_cap_0_6: q[0,7] <= 15000
 q_consume_lb_0_7: - q[0,7] + q[0,8] + d[0,0,0,7] + d[0,0,1,7] + d[0,0,2,7]
   + d[0,0,3,7] + d[0,0,4,7] + d[0,1,0,7] + d[0,1,1,7] + d[0,1,2,7]
   + d[0,1,3,7] + d[0,1,4,7] + d[0,2,0,7] + d[0,2,1,7] + d[0,2,2,7]
   + d[0,2,3,7] + d[0,2,4,7] + d[0,3,0,7] + d[0,3,1,7] + d[0,3,2,7]
   + d[0,3,3,7] + d[0,3,4,7] + d[0,4,0,7] + d[0,4,1,7] + d[0,4,2,7]
   + d[0,4,3,7] + d[0,4,4,7] + 17000 wat[0,7] >= 0
 q_consume_ub_0_7: - q[0,7] + q[0,8] + d[0,0,0,7] + d[0,0,1,7] + d[0,0,2,7]
   + d[0,0,3,7] + d[0,0,4,7] + d[0,1,0,7] + d[0,1,1,7] + d[0,1,2,7]
   + d[0,1,3,7] + d[0,1,4,7] + d[0,2,0,7] + d[0,2,1,7] + d[0,2,2,7]
   + d[0,2,3,7] + d[0,2,4,7] + d[0,3,0,7] + d[0,3,1,7] + d[0,3,2,7]
   + d[0,3,3,7] + d[0,3,4,7] + d[0,4,0,7] + d[0,4,1,7] + d[0,4,2,7]
   + d[0,4,3,7] + d[0,4,4,7] - 17000 wat[0,7] <= 0
 q_refill_0_7: q[0,8] - 17000 wat[0,7] >= -2000
 q_cap_0_7: q[0,8] <= 15000
 q_consume_lb_0_8: - q[0,8] + q[0,9] + d[0,0,0,8] + d[0,0,1,8] + d[0,0,2,8]
   + d[0,0,3,8] + d[0,0,4,8] + d[0,1,0,8] + d[0,1,1,8] + d[0,1,2,8]
   + d[0,1,3,8] + d[0,1,4,8] + d[0,2,0,8] + d[0,2,1,8] + d[0,2,2,8]
   + d[0,2,3,8] + d[0,2,4,8] + d[0,3,0,8] + d[0,3,1,8] + d[0,3,2,8]
   + d[0,3,3,8] + d[0,3,4,8] + d[0,4,0,8] + d[0,4,1,8] + d[0,4,2,8]
   + d[0,4,3,8] + d[0,4,4,8] + 17000 wat[0,8] >= 0
 q_consume_ub_0_8: - q[0,8] + q[0,9] + d[0,0,0,8] + d[0,0,1,8] + d[0,0,2,8]
   + d[0,0,3,8] + d[0,0,4,8] + d[0,1,0,8] + d[0,1,1,8] + d[0,1,2,8]
   + d[0,1,3,8] + d[0,1,4,8] + d[0,2,0,8] + d[0,2,1,8] + d[0,2,2,8]
   + d[0,2,3,8] + d[0,2,4,8] + d[0,3,0,8] + d[0,3,1,8] + d[0,3,2,8]
   + d[0,3,3,8] + d[0,3,4,8] + d[0,4,0,8] + d[0,4,1,8] + d[0,4,2,8]
   + d[0,4,3,8] + d[0,4,4,8] - 17000 wat[0,8] <= 0
 q_refill_0_8: q[0,9] - 17000 wat[0,8] >= -2000
 q_cap_0_8: q[0,9] <= 15000
 q_consume_lb_1_0: - q[1,0] + q[1,1] + d[1,0,0,0] + d[1,0,1,0] + d[1,0,2,0]
   + d[1,0,3,0] + d[1,0,4,0] + d[1,1,0,0] + d[1,1,1,0] + d[1,1,2,0]
   + d[1,1,3,0] + d[1,1,4,0] + d[1,2,0,0] + d[1,2,1,0] + d[1,2,2,0]
   + d[1,2,3,0] + d[1,2,4,0] + d[1,3,0,0] + d[1,3,1,0] + d[1,3,2,0]
   + d[1,3,3,0] + d[1,3,4,0] + d[1,4,0,0] + d[1,4,1,0] + d[1,4,2,0]
   + d[1,4,3,0] + d[1,4,4,0] + 17000 wat[1,0] >= 0
 q_consume_ub_1_0: - q[1,0] + q[1,1] + d[1,0,0,0] + d[1,0,1,0] + d[1,0,2,0]
   + d[1,0,3,0] + d[1,0,4,0] + d[1,1,0,0] + d[1,1,1,0] + d[1,1,2,0]
   + d[1,1,3,0] + d[1,1,4,0] + d[1,2,0,0] + d[1,2,1,0] + d[1,2,2,0]
   + d[1,2,3,0] + d[1,2,4,0] + d[1,3,0,0] + d[1,3,1,0] + d[1,3,2,0]
   + d[1,3,3,0] + d[1,3,4,0] + d[1,4,0,0] + d[1,4,1,0] + d[1,4,2,0]
   + d[1,4,3,0] + d[1,4,4,0] - 17000 wat[1,0] <= 0
 q_refill_1_0: q[1,1] - 17000 wat[1,0] >= -14000
 q_cap_1_0: q[1,1] <= 3000
 q_consume_lb_1_1: - q[1,1] + q[1,2] + d[1,0,0,1] + d[1,0,1,1] + d[1,0,2,1]
   + d[1,0,3,1] + d[1,0,4,1] + d[1,1,0,1] + d[1,1,1,1] + d[1,1,2,1]
   + d[1,1,3,1] + d[1,1,4,1] + d[1,2,0,1] + d[1,2,1,1] + d[1,2,2,1]
   + d[1,2,3,1] + d[1,2,4,1] + d[1,3,0,1] + d[1,3,1,1] + d[1,3,2,1]
   + d[1,3,3,1] + d[1,3,4,1] + d[1,4,0,1] + d[1,4,1,1] + d[1,4,2,1]
   + d[1,4,3,1] + d[1,4,4,1] + 17000 wat[1,1] >= 0
 q_consume_ub_1_1: - q[1,1] + q[1,2] + d[1,0,0,1] + d[1,0,1,1] + d[1,0,2,1]
   + d[1,0,3,1] + d[1,0,4,1] + d[1,1,0,1] + d[1,1,1,1] + d[1,1,2,1]
   + d[1,1,3,1] + d[1,1,4,1] + d[1,2,0,1] + d[1,2,1,1] + d[1,2,2,1]
   + d[1,2,3,1] + d[1,2,4,1] + d[1,3,0,1] + d[1,3,1,1] + d[1,3,2,1]
   + d[1,3,3,1] + d[1,3,4,1] + d[1,4,0,1] + d[1,4,1,1] + d[1,4,2,1]
   + d[1,4,3,1] + d[1,4,4,1] - 17000 wat[1,1] <= 0
 q_refill_1_1: q[1,2] - 17000 wat[1,1] >= -14000
 q_cap_1_1: q[1,2] <= 3000
 q_consume_lb_1_2: - q[1,2] + q[1,3] + d[1,0,0,2] + d[1,0,1,2] + d[1,0,2,2]
   + d[1,0,3,2] + d[1,0,4,2] + d[1,1,0,2] + d[1,1,1,2] + d[1,1,2,2]
   + d[1,1,3,2] + d[1,1,4,2] + d[1,2,0,2] + d[1,2,1,2] + d[1,2,2,2]
   + d[1,2,3,2] + d[1,2,4,2] + d[1,3,0,2] + d[1,3,1,2] + d[1,3,2,2]
   + d[1,3,3,2] + d[1,3,4,2] + d[1,4,0,2] + d[1,4,1,2] + d[1,4,2,2]
   + d[1,4,3,2] + d[1,4,4,2] + 17000 wat[1,2] >= 0
 q_consume_ub_1_2: - q[1,2] + q[1,3] + d[1,0,0,2] + d[1,0,1,2] + d[1,0,2,2]
   + d[1,0,3,2] + d[1,0,4,2] + d[1,1,0,2] + d[1,1,1,2] + d[1,1,2,2]
   + d[1,1,3,2] + d[1,1,4,2] + d[1,2,0,2] + d[1,2,1,2] + d[1,2,2,2]
   + d[1,2,3,2] + d[1,2,4,2] + d[1,3,0,2] + d[1,3,1,2] + d[1,3,2,2]
   + d[1,3,3,2] + d[1,3,4,2] + d[1,4,0,2] + d[1,4,1,2] + d[1,4,2,2]
   + d[1,4,3,2] + d[1,4,4,2] - 17000 wat[1,2] <= 0
 q_refill_1_2: q[1,3] - 17000 wat[1,2] >= -14000
 q_cap_1_2: q[1,3] <= 3000
 q_consume_lb_1_3: - q[1,3] + q[1,4] + d[1,0,0,3] + d[1,0,1,3] + d[1,0,2,3]
   + d[1,0,3,3] + d[1,0,4,3] + d[1,1,0,3] + d[1,1,1,3] + d[1,1,2,3]
   + d[1,1,3,3] + d[1,1,4,3] + d[1,2,0,3] + d[1,2,1,3] + d[1,2,2,3]
   + d[1,2,3,3] + d[1,2,4,3] + d[1,3,0,3] + d[1,3,1,3] + d[1,3,2,3]
   + d[1,3,3,3] + d[1,3,4,3] + d[1,4,0,3] + d[1,4,1,3] + d[1,4,2,3]
   + d[1,4,3,3] + d[1,4,4,3] + 17000 wat[1,3] >= 0
 q_consume_ub_1_3: - q[1,3] + q[1,4] + d[1,0,0,3] + d[1,0,1,3] + d[1,0,2,3]
   + d[1,0,3,3] + d[1,0,4,3] + d[1,1,0,3] + d[1,1,1,3] + d[1,1,2,3]
   + d[1,1,3,3] + d[1,1,4,3] + d[1,2,0,3] + d[1,2,1,3] + d[1,2,2,3]
   + d[1,2,3,3] + d[1,2,4,3] + d[1,3,0,3] + d[1,3,1,3] + d[1,3,2,3]
   + d[1,3,3,3] + d[1,3,4,3] + d[1,4,0,3] + d[1,4,1,3] + d[1,4,2,3]
   + d[1,4,3,3] + d[1,4,4,3] - 17000 wat[1,3] <= 0
 q_refill_1_3: q[1,4] - 17000 wat[1,3] >= -14000
 q_cap_1_3: q[1,4] <= 3000
 q_consume_lb_1_4: - q[1,4] + q[1,5] + d[1,0,0,4] + d[1,0,1,4] + d[1,0,2,4]
   + d[1,0,3,4] + d[1,0,4,4] + d[1,1,0,4] + d[1,1,1,4] + d[1,1,2,4]
   + d[1,1,3,4] + d[1,1,4,4] + d[1,2,0,4] + d[1,2,1,4] + d[1,2,2,4]
   + d[1,2,3,4] + d[1,2,4,4] + d[1,3,0,4] + d[1,3,1,4] + d[1,3,2,4]
   + d[1,3,3,4] + d[1,3,4,4] + d[1,4,0,4] + d[1,4,1,4] + d[1,4,2,4]
   + d[1,4,3,4] + d[1,4,4,4] + 17000 wat[1,4] >= 0
 q_consume_ub_1_4: - q[1,4] + q[1,5] + d[1,0,0,4] + d[1,0,1,4] + d[1,0,2,4]
   + d[1,0,3,4] + d[1,0,4,4] + d[1,1,0,4] + d[1,1,1,4] + d[1,1,2,4]
   + d[1,1,3,4] + d[1,1,4,4] + d[1,2,0,4] + d[1,2,1,4] + d[1,2,2,4]
   + d[1,2,3,4] + d[1,2,4,4] + d[1,3,0,4] + d[1,3,1,4] + d[1,3,2,4]
   + d[1,3,3,4] + d[1,3,4,4] + d[1,4,0,4] + d[1,4,1,4] + d[1,4,2,4]
   + d[1,4,3,4] + d[1,4,4,4] - 17000 wat[1,4] <= 0
 q_refill_1_4: q[1,5] - 17000 wat[1,4] >= -14000
 q_cap_1_4: q[1,5] <= 3000
 q_consume_lb_1_5: - q[1,5] + q[1,6] + d[1,0,0,5] + d[1,0,1,5] + d[1,0,2,5]
   + d[1,0,3,5] + d[1,0,4,5] + d[1,1,0,5] + d[1,1,1,5] + d[1,1,2,5]
   + d[1,1,3,5] + d[1,1,4,5] + d[1,2,0,5] + d[1,2,1,5] + d[1,2,2,5]
   + d[1,2,3,5] + d[1,2,4,5] + d[1,3,0,5] + d[1,3,1,5] + d[1,3,2,5]
   + d[1,3,3,5] + d[1,3,4,5] + d[1,4,0,5] + d[1,4,1,5] + d[1,4,2,5]
   + d[1,4,3,5] + d[1,4,4,5] + 17000 wat[1,5] >= 0
 q_consume_ub_1_5: - q[1,5] + q[1,6] + d[1,0,0,5] + d[1,0,1,5] + d[1,0,2,5]
   + d[1,0,3,5] + d[1,0,4,5] + d[1,1,0,5] + d[1,1,1,5] + d[1,1,2,5]
   + d[1,1,3,5] + d[1,1,4,5] + d[1,2,0,5] + d[1,2,1,5] + d[1,2,2,5]
   + d[1,2,3,5] + d[1,2,4,5] + d[1,3,0,5] + d[1,3,1,5] + d[1,3,2,5]
   + d[1,3,3,5] + d[1,3,4,5] + d[1,4,0,5] + d[1,4,1,5] + d[1,4,2,5]
   + d[1,4,3,5] + d[1,4,4,5] - 17000 wat[1,5] <= 0
 q_refill_1_5: q[1,6] - 17000 wat[1,5] >= -14000
 q_cap_1_5: q[1,6] <= 3000
 q_consume_lb_1_6: - q[1,6] + q[1,7] + d[1,0,0,6] + d[1,0,1,6] + d[1,0,2,6]
   + d[1,0,3,6] + d[1,0,4,6] + d[1,1,0,6] + d[1,1,1,6] + d[1,1,2,6]
   + d[1,1,3,6] + d[1,1,4,6] + d[1,2,0,6] + d[1,2,1,6] + d[1,2,2,6]
   + d[1,2,3,6] + d[1,2,4,6] + d[1,3,0,6] + d[1,3,1,6] + d[1,3,2,6]
   + d[1,3,3,6] + d[1,3,4,6] + d[1,4,0,6] + d[1,4,1,6] + d[1,4,2,6]
   + d[1,4,3,6] + d[1,4,4,6] + 17000 wat[1,6] >= 0
 q_consume_ub_1_6: - q[1,6] + q[1,7] + d[1,0,0,6] + d[1,0,1,6] + d[1,0,2,6]
   + d[1,0,3,6] + d[1,0,4,6] + d[1,1,0,6] + d[1,1,1,6] + d[1,1,2,6]
   + d[1,1,3,6] + d[1,1,4,6] + d[1,2,0,6] + d[1,2,1,6] + d[1,2,2,6]
   + d[1,2,3,6] + d[1,2,4,6] + d[1,3,0,6] + d[1,3,1,6] + d[1,3,2,6]
   + d[1,3,3,6] + d[1,3,4,6] + d[1,4,0,6] + d[1,4,1,6] + d[1,4,2,6]
   + d[1,4,3,6] + d[1,4,4,6] - 17000 wat[1,6] <= 0
 q_refill_1_6: q[1,7] - 17000 wat[1,6] >= -14000
 q_cap_1_6: q[1,7] <= 3000
 q_consume_lb_1_7: - q[1,7] + q[1,8] + d[1,0,0,7] + d[1,0,1,7] + d[1,0,2,7]
   + d[1,0,3,7] + d[1,0,4,7] + d[1,1,0,7] + d[1,1,1,7] + d[1,1,2,7]
   + d[1,1,3,7] + d[1,1,4,7] + d[1,2,0,7] + d[1,2,1,7] + d[1,2,2,7]
   + d[1,2,3,7] + d[1,2,4,7] + d[1,3,0,7] + d[1,3,1,7] + d[1,3,2,7]
   + d[1,3,3,7] + d[1,3,4,7] + d[1,4,0,7] + d[1,4,1,7] + d[1,4,2,7]
   + d[1,4,3,7] + d[1,4,4,7] + 17000 wat[1,7] >= 0
 q_consume_ub_1_7: - q[1,7] + q[1,8] + d[1,0,0,7] + d[1,0,1,7] + d[1,0,2,7]
   + d[1,0,3,7] + d[1,0,4,7] + d[1,1,0,7] + d[1,1,1,7] + d[1,1,2,7]
   + d[1,1,3,7] + d[1,1,4,7] + d[1,2,0,7] + d[1,2,1,7] + d[1,2,2,7]
   + d[1,2,3,7] + d[1,2,4,7] + d[1,3,0,7] + d[1,3,1,7] + d[1,3,2,7]
   + d[1,3,3,7] + d[1,3,4,7] + d[1,4,0,7] + d[1,4,1,7] + d[1,4,2,7]
   + d[1,4,3,7] + d[1,4,4,7] - 17000 wat[1,7] <= 0
 q_refill_1_7: q[1,8] - 17000 wat[1,7] >= -14000
 q_cap_1_7: q[1,8] <= 3000
 q_consume_lb_1_8: - q[1,8] + q[1,9] + d[1,0,0,8] + d[1,0,1,8] + d[1,0,2,8]
   + d[1,0,3,8] + d[1,0,4,8] + d[1,1,0,8] + d[1,1,1,8] + d[1,1,2,8]
   + d[1,1,3,8] + d[1,1,4,8] + d[1,2,0,8] + d[1,2,1,8] + d[1,2,2,8]
   + d[1,2,3,8] + d[1,2,4,8] + d[1,3,0,8] + d[1,3,1,8] + d[1,3,2,8]
   + d[1,3,3,8] + d[1,3,4,8] + d[1,4,0,8] + d[1,4,1,8] + d[1,4,2,8]
   + d[1,4,3,8] + d[1,4,4,8] + 17000 wat[1,8] >= 0
 q_consume_ub_1_8: - q[1,8] + q[1,9] + d[1,0,0,8] + d[1,0,1,8] + d[1,0,2,8]
   + d[1,0,3,8] + d[1,0,4,8] + d[1,1,0,8] + d[1,1,1,8] + d[1,1,2,8]
   + d[1,1,3,8] + d[1,1,4,8] + d[1,2,0,8] + d[1,2,1,8] + d[1,2,2,8]
   + d[1,2,3,8] + d[1,2,4,8] + d[1,3,0,8] + d[1,3,1,8] + d[1,3,2,8]
   + d[1,3,3,8] + d[1,3,4,8] + d[1,4,0,8] + d[1,4,1,8] + d[1,4,2,8]
   + d[1,4,3,8] + d[1,4,4,8] - 17000 wat[1,8] <= 0
 q_refill_1_8: q[1,9] - 17000 wat[1,8] >= -14000
 q_cap_1_8: q[1,9] <= 3000
 q_consume_lb_2_0: - q[2,0] + q[2,1] + d[2,0,0,0] + d[2,0,1,0] + d[2,0,2,0]
   + d[2,0,3,0] + d[2,0,4,0] + d[2,1,0,0] + d[2,1,1,0] + d[2,1,2,0]
   + d[2,1,3,0] + d[2,1,4,0] + d[2,2,0,0] + d[2,2,1,0] + d[2,2,2,0]
   + d[2,2,3,0] + d[2,2,4,0] + d[2,3,0,0] + d[2,3,1,0] + d[2,3,2,0]
   + d[2,3,3,0] + d[2,3,4,0] + d[2,4,0,0] + d[2,4,1,0] + d[2,4,2,0]
   + d[2,4,3,0] + d[2,4,4,0] + 17000 wat[2,0] >= 0
 q_consume_ub_2_0: - q[2,0] + q[2,1] + d[2,0,0,0] + d[2,0,1,0] + d[2,0,2,0]
   + d[2,0,3,0] + d[2,0,4,0] + d[2,1,0,0] + d[2,1,1,0] + d[2,1,2,0]
   + d[2,1,3,0] + d[2,1,4,0] + d[2,2,0,0] + d[2,2,1,0] + d[2,2,2,0]
   + d[2,2,3,0] + d[2,2,4,0] + d[2,3,0,0] + d[2,3,1,0] + d[2,3,2,0]
   + d[2,3,3,0] + d[2,3,4,0] + d[2,4,0,0] + d[2,4,1,0] + d[2,4,2,0]
   + d[2,4,3,0] + d[2,4,4,0] - 17000 wat[2,0] <= 0
 q_refill_2_0: q[2,1] - 17000 wat[2,0] >= -14000
 q_cap_2_0: q[2,1] <= 3000
 q_consume_lb_2_1: - q[2,1] + q[2,2] + d[2,0,0,1] + d[2,0,1,1] + d[2,0,2,1]
   + d[2,0,3,1] + d[2,0,4,1] + d[2,1,0,1] + d[2,1,1,1] + d[2,1,2,1]
   + d[2,1,3,1] + d[2,1,4,1] + d[2,2,0,1] + d[2,2,1,1] + d[2,2,2,1]
   + d[2,2,3,1] + d[2,2,4,1] + d[2,3,0,1] + d[2,3,1,1] + d[2,3,2,1]
   + d[2,3,3,1] + d[2,3,4,1] + d[2,4,0,1] + d[2,4,1,1] + d[2,4,2,1]
   + d[2,4,3,1] + d[2,4,4,1] + 17000 wat[2,1] >= 0
 q_consume_ub_2_1: - q[2,1] + q[2,2] + d[2,0,0,1] + d[2,0,1,1] + d[2,0,2,1]
   + d[2,0,3,1] + d[2,0,4,1] + d[2,1,0,1] + d[2,1,1,1] + d[2,1,2,1]
   + d[2,1,3,1] + d[2,1,4,1] + d[2,2,0,1] + d[2,2,1,1] + d[2,2,2,1]
   + d[2,2,3,1] + d[2,2,4,1] + d[2,3,0,1] + d[2,3,1,1] + d[2,3,2,1]
   + d[2,3,3,1] + d[2,3,4,1] + d[2,4,0,1] + d[2,4,1,1] + d[2,4,2,1]
   + d[2,4,3,1] + d[2,4,4,1] - 17000 wat[2,1] <= 0
 q_refill_2_1: q[2,2] - 17000 wat[2,1] >= -14000
 q_cap_2_1: q[2,2] <= 3000
 q_consume_lb_2_2: - q[2,2] + q[2,3] + d[2,0,0,2] + d[2,0,1,2] + d[2,0,2,2]
   + d[2,0,3,2] + d[2,0,4,2] + d[2,1,0,2] + d[2,1,1,2] + d[2,1,2,2]
   + d[2,1,3,2] + d[2,1,4,2] + d[2,2,0,2] + d[2,2,1,2] + d[2,2,2,2]
   + d[2,2,3,2] + d[2,2,4,2] + d[2,3,0,2] + d[2,3,1,2] + d[2,3,2,2]
   + d[2,3,3,2] + d[2,3,4,2] + d[2,4,0,2] + d[2,4,1,2] + d[2,4,2,2]
   + d[2,4,3,2] + d[2,4,4,2] + 17000 wat[2,2] >= 0
 q_consume_ub_2_2: - q[2,2] + q[2,3] + d[2,0,0,2] + d[2,0,1,2] + d[2,0,2,2]
   + d[2,0,3,2] + d[2,0,4,2] + d[2,1,0,2] + d[2,1,1,2] + d[2,1,2,2]
   + d[2,1,3,2] + d[2,1,4,2] + d[2,2,0,2] + d[2,2,1,2] + d[2,2,2,2]
   + d[2,2,3,2] + d[2,2,4,2] + d[2,3,0,2] + d[2,3,1,2] + d[2,3,2,2]
   + d[2,3,3,2] + d[2,3,4,2] + d[2,4,0,2] + d[2,4,1,2] + d[2,4,2,2]
   + d[2,4,3,2] + d[2,4,4,2] - 17000 wat[2,2] <= 0
 q_refill_2_2: q[2,3] - 17000 wat[2,2] >= -14000
 q_cap_2_2: q[2,3] <= 3000
 q_consume_lb_2_3: - q[2,3] + q[2,4] + d[2,0,0,3] + d[2,0,1,3] + d[2,0,2,3]
   + d[2,0,3,3] + d[2,0,4,3] + d[2,1,0,3] + d[2,1,1,3] + d[2,1,2,3]
   + d[2,1,3,3] + d[2,1,4,3] + d[2,2,0,3] + d[2,2,1,3] + d[2,2,2,3]
   + d[2,2,3,3] + d[2,2,4,3] + d[2,3,0,3] + d[2,3,1,3] + d[2,3,2,3]
   + d[2,3,3,3] + d[2,3,4,3] + d[2,4,0,3] + d[2,4,1,3] + d[2,4,2,3]
   + d[2,4,3,3] + d[2,4,4,3] + 17000 wat[2,3] >= 0
 q_consume_ub_2_3: - q[2,3] + q[2,4] + d[2,0,0,3] + d[2,0,1,3] + d[2,0,2,3]
   + d[2,0,3,3] + d[2,0,4,3] + d[2,1,0,3] + d[2,1,1,3] + d[2,1,2,3]
   + d[2,1,3,3] + d[2,1,4,3] + d[2,2,0,3] + d[2,2,1,3] + d[2,2,2,3]
   + d[2,2,3,3] + d[2,2,4,3] + d[2,3,0,3] + d[2,3,1,3] + d[2,3,2,3]
   + d[2,3,3,3] + d[2,3,4,3] + d[2,4,0,3] + d[2,4,1,3] + d[2,4,2,3]
   + d[2,4,3,3] + d[2,4,4,3] - 17000 wat[2,3] <= 0
 q_refill_2_3: q[2,4] - 17000 wat[2,3] >= -14000
 q_cap_2_3: q[2,4] <= 3000
 q_consume_lb_2_4: - q[2,4] + q[2,5] + d[2,0,0,4] + d[2,0,1,4] + d[2,0,2,4]
   + d[2,0,3,4] + d[2,0,4,4] + d[2,1,0,4] + d[2,1,1,4] + d[2,1,2,4]
   + d[2,1,3,4] + d[2,1,4,4] + d[2,2,0,4] + d[2,2,1,4] + d[2,2,2,4]
   + d[2,2,3,4] + d[2,2,4,4] + d[2,3,0,4] + d[2,3,1,4] + d[2,3,2,4]
   + d[2,3,3,4] + d[2,3,4,4] + d[2,4,0,4] + d[2,4,1,4] + d[2,4,2,4]
   + d[2,4,3,4] + d[2,4,4,4] + 17000 wat[2,4] >= 0
 q_consume_ub_2_4: - q[2,4] + q[2,5] + d[2,0,0,4] + d[2,0,1,4] + d[2,0,2,4]
   + d[2,0,3,4] + d[2,0,4,4] + d[2,1,0,4] + d[2,1,1,4] + d[2,1,2,4]
   + d[2,1,3,4] + d[2,1,4,4] + d[2,2,0,4] + d[2,2,1,4] + d[2,2,2,4]
   + d[2,2,3,4] + d[2,2,4,4] + d[2,3,0,4] + d[2,3,1,4] + d[2,3,2,4]
   + d[2,3,3,4] + d[2,3,4,4] + d[2,4,0,4] + d[2,4,1,4] + d[2,4,2,4]
   + d[2,4,3,4] + d[2,4,4,4] - 17000 wat[2,4] <= 0
 q_refill_2_4: q[2,5] - 17000 wat[2,4] >= -14000
 q_cap_2_4: q[2,5] <= 3000
 q_consume_lb_2_5: - q[2,5] + q[2,6] + d[2,0,0,5] + d[2,0,1,5] + d[2,0,2,5]
   + d[2,0,3,5] + d[2,0,4,5] + d[2,1,0,5] + d[2,1,1,5] + d[2,1,2,5]
   + d[2,1,3,5] + d[2,1,4,5] + d[2,2,0,5] + d[2,2,1,5] + d[2,2,2,5]
   + d[2,2,3,5] + d[2,2,4,5] + d[2,3,0,5] + d[2,3,1,5] + d[2,3,2,5]
   + d[2,3,3,5] + d[2,3,4,5] + d[2,4,0,5] + d[2,4,1,5] + d[2,4,2,5]
   + d[2,4,3,5] + d[2,4,4,5] + 17000 wat[2,5] >= 0
 q_consume_ub_2_5: - q[2,5] + q[2,6] + d[2,0,0,5] + d[2,0,1,5] + d[2,0,2,5]
   + d[2,0,3,5] + d[2,0,4,5] + d[2,1,0,5] + d[2,1,1,5] + d[2,1,2,5]
   + d[2,1,3,5] + d[2,1,4,5] + d[2,2,0,5] + d[2,2,1,5] + d[2,2,2,5]
   + d[2,2,3,5] + d[2,2,4,5] + d[2,3,0,5] + d[2,3,1,5] + d[2,3,2,5]
   + d[2,3,3,5] + d[2,3,4,5] + d[2,4,0,5] + d[2,4,1,5] + d[2,4,2,5]
   + d[2,4,3,5] + d[2,4,4,5] - 17000 wat[2,5] <= 0
 q_refill_2_5: q[2,6] - 17000 wat[2,5] >= -14000
 q_cap_2_5: q[2,6] <= 3000
 q_consume_lb_2_6: - q[2,6] + q[2,7] + d[2,0,0,6] + d[2,0,1,6] + d[2,0,2,6]
   + d[2,0,3,6] + d[2,0,4,6] + d[2,1,0,6] + d[2,1,1,6] + d[2,1,2,6]
   + d[2,1,3,6] + d[2,1,4,6] + d[2,2,0,6] + d[2,2,1,6] + d[2,2,2,6]
   + d[2,2,3,6] + d[2,2,4,6] + d[2,3,0,6] + d[2,3,1,6] + d[2,3,2,6]
   + d[2,3,3,6] + d[2,3,4,6] + d[2,4,0,6] + d[2,4,1,6] + d[2,4,2,6]
   + d[2,4,3,6] + d[2,4,4,6] + 17000 wat[2,6] >= 0
 q_consume_ub_2_6: - q[2,6] + q[2,7] + d[2,0,0,6] + d[2,0,1,6] + d[2,0,2,6]
   + d[2,0,3,6] + d[2,0,4,6] + d[2,1,0,6] + d[2,1,1,6] + d[2,1,2,6]
   + d[2,1,3,6] + d[2,1,4,6] + d[2,2,0,6] + d[2,2,1,6] + d[2,2,2,6]
   + d[2,2,3,6] + d[2,2,4,6] + d[2,3,0,6] + d[2,3,1,6] + d[2,3,2,6]
   + d[2,3,3,6] + d[2,3,4,6] + d[2,4,0,6] + d[2,4,1,6] + d[2,4,2,6]
   + d[2,4,3,6] + d[2,4,4,6] - 17000 wat[2,6] <= 0
 q_refill_2_6: q[2,7] - 17000 wat[2,6] >= -14000
 q_cap_2_6: q[2,7] <= 3000
 q_consume_lb_2_7: - q[2,7] + q[2,8] + d[2,0,0,7] + d[2,0,1,7] + d[2,0,2,7]
   + d[2,0,3,7] + d[2,0,4,7] + d[2,1,0,7] + d[2,1,1,7] + d[2,1,2,7]
   + d[2,1,3,7] + d[2,1,4,7] + d[2,2,0,7] + d[2,2,1,7] + d[2,2,2,7]
   + d[2,2,3,7] + d[2,2,4,7] + d[2,3,0,7] + d[2,3,1,7] + d[2,3,2,7]
   + d[2,3,3,7] + d[2,3,4,7] + d[2,4,0,7] + d[2,4,1,7] + d[2,4,2,7]
   + d[2,4,3,7] + d[2,4,4,7] + 17000 wat[2,7] >= 0
 q_consume_ub_2_7: - q[2,7] + q[2,8] + d[2,0,0,7] + d[2,0,1,7] + d[2,0,2,7]
   + d[2,0,3,7] + d[2,0,4,7] + d[2,1,0,7] + d[2,1,1,7] + d[2,1,2,7]
   + d[2,1,3,7] + d[2,1,4,7] + d[2,2,0,7] + d[2,2,1,7] + d[2,2,2,7]
   + d[2,2,3,7] + d[2,2,4,7] + d[2,3,0,7] + d[2,3,1,7] + d[2,3,2,7]
   + d[2,3,3,7] + d[2,3,4,7] + d[2,4,0,7] + d[2,4,1,7] + d[2,4,2,7]
   + d[2,4,3,7] + d[2,4,4,7] - 17000 wat[2,7] <= 0
 q_refill_2_7: q[2,8] - 17000 wat[2,7] >= -14000
 q_cap_2_7: q[2,8] <= 3000
 q_consume_lb_2_8: - q[2,8] + q[2,9] + d[2,0,0,8] + d[2,0,1,8] + d[2,0,2,8]
   + d[2,0,3,8] + d[2,0,4,8] + d[2,1,0,8] + d[2,1,1,8] + d[2,1,2,8]
   + d[2,1,3,8] + d[2,1,4,8] + d[2,2,0,8] + d[2,2,1,8] + d[2,2,2,8]
   + d[2,2,3,8] + d[2,2,4,8] + d[2,3,0,8] + d[2,3,1,8] + d[2,3,2,8]
   + d[2,3,3,8] + d[2,3,4,8] + d[2,4,0,8] + d[2,4,1,8] + d[2,4,2,8]
   + d[2,4,3,8] + d[2,4,4,8] + 17000 wat[2,8] >= 0
 q_consume_ub_2_8: - q[2,8] + q[2,9] + d[2,0,0,8] + d[2,0,1,8] + d[2,0,2,8]
   + d[2,0,3,8] + d[2,0,4,8] + d[2,1,0,8] + d[2,1,1,8] + d[2,1,2,8]
   + d[2,1,3,8] + d[2,1,4,8] + d[2,2,0,8] + d[2,2,1,8] + d[2,2,2,8]
   + d[2,2,3,8] + d[2,2,4,8] + d[2,3,0,8] + d[2,3,1,8] + d[2,3,2,8]
   + d[2,3,3,8] + d[2,3,4,8] + d[2,4,0,8] + d[2,4,1,8] + d[2,4,2,8]
   + d[2,4,3,8] + d[2,4,4,8] - 17000 wat[2,8] <= 0
 q_refill_2_8: q[2,9] - 17000 wat[2,8] >= -14000
 q_cap_2_8: q[2,9] <= 3000
 water_sufficiency_0_0: q[0,0] - d[0,0,0,0] - d[0,0,1,0] - d[0,0,2,0]
   - d[0,0,3,0] - d[0,0,4,0] - d[0,1,0,0] - d[0,1,1,0] - d[0,1,2,0]
   - d[0,1,3,0] - d[0,1,4,0] - d[0,2,0,0] - d[0,2,1,0] - d[0,2,2,0]
   - d[0,2,3,0] - d[0,2,4,0] - d[0,3,0,0] - d[0,3,1,0] - d[0,3,2,0]
   - d[0,3,3,0] - d[0,3,4,0] - d[0,4,0,0] - d[0,4,1,0] - d[0,4,2,0]
   - d[0,4,3,0] - d[0,4,4,0] >= 0
 water_sufficiency_0_1: q[0,1] - d[0,0,0,1] - d[0,0,1,1] - d[0,0,2,1]
   - d[0,0,3,1] - d[0,0,4,1] - d[0,1,0,1] - d[0,1,1,1] - d[0,1,2,1]
   - d[0,1,3,1] - d[0,1,4,1] - d[0,2,0,1] - d[0,2,1,1] - d[0,2,2,1]
   - d[0,2,3,1] - d[0,2,4,1] - d[0,3,0,1] - d[0,3,1,1] - d[0,3,2,1]
   - d[0,3,3,1] - d[0,3,4,1] - d[0,4,0,1] - d[0,4,1,1] - d[0,4,2,1]
   - d[0,4,3,1] - d[0,4,4,1] >= 0
 water_sufficiency_0_2: q[0,2] - d[0,0,0,2] - d[0,0,1,2] - d[0,0,2,2]
   - d[0,0,3,2] - d[0,0,4,2] - d[0,1,0,2] - d[0,1,1,2] - d[0,1,2,2]
   - d[0,1,3,2] - d[0,1,4,2] - d[0,2,0,2] - d[0,2,1,2] - d[0,2,2,2]
   - d[0,2,3,2] - d[0,2,4,2] - d[0,3,0,2] - d[0,3,1,2] - d[0,3,2,2]
   - d[0,3,3,2] - d[0,3,4,2] - d[0,4,0,2] - d[0,4,1,2] - d[0,4,2,2]
   - d[0,4,3,2] - d[0,4,4,2] >= 0
 water_sufficiency_0_3: q[0,3] - d[0,0,0,3] - d[0,0,1,3] - d[0,0,2,3]
   - d[0,0,3,3] - d[0,0,4,3] - d[0,1,0,3] - d[0,1,1,3] - d[0,1,2,3]
   - d[0,1,3,3] - d[0,1,4,3] - d[0,2,0,3] - d[0,2,1,3] - d[0,2,2,3]
   - d[0,2,3,3] - d[0,2,4,3] - d[0,3,0,3] - d[0,3,1,3] - d[0,3,2,3]
   - d[0,3,3,3] - d[0,3,4,3] - d[0,4,0,3] - d[0,4,1,3] - d[0,4,2,3]
   - d[0,4,3,3] - d[0,4,4,3] >= 0
 water_sufficiency_0_4: q[0,4] - d[0,0,0,4] - d[0,0,1,4] - d[0,0,2,4]
   - d[0,0,3,4] - d[0,0,4,4] - d[0,1,0,4] - d[0,1,1,4] - d[0,1,2,4]
   - d[0,1,3,4] - d[0,1,4,4] - d[0,2,0,4] - d[0,2,1,4] - d[0,2,2,4]
   - d[0,2,3,4] - d[0,2,4,4] - d[0,3,0,4] - d[0,3,1,4] - d[0,3,2,4]
   - d[0,3,3,4] - d[0,3,4,4] - d[0,4,0,4] - d[0,4,1,4] - d[0,4,2,4]
   - d[0,4,3,4] - d[0,4,4,4] >= 0
 water_sufficiency_0_5: q[0,5] - d[0,0,0,5] - d[0,0,1,5] - d[0,0,2,5]
   - d[0,0,3,5] - d[0,0,4,5] - d[0,1,0,5] - d[0,1,1,5] - d[0,1,2,5]
   - d[0,1,3,5] - d[0,1,4,5] - d[0,2,0,5] - d[0,2,1,5] - d[0,2,2,5]
   - d[0,2,3,5] - d[0,2,4,5] - d[0,3,0,5] - d[0,3,1,5] - d[0,3,2,5]
   - d[0,3,3,5] - d[0,3,4,5] - d[0,4,0,5] - d[0,4,1,5] - d[0,4,2,5]
   - d[0,4,3,5] - d[0,4,4,5] >= 0
 water_sufficiency_0_6: q[0,6] - d[0,0,0,6] - d[0,0,1,6] - d[0,0,2,6]
   - d[0,0,3,6] - d[0,0,4,6] - d[0,1,0,6] - d[0,1,1,6] - d[0,1,2,6]
   - d[0,1,3,6] - d[0,1,4,6] - d[0,2,0,6] - d[0,2,1,6] - d[0,2,2,6]
   - d[0,2,3,6] - d[0,2,4,6] - d[0,3,0,6] - d[0,3,1,6] - d[0,3,2,6]
   - d[0,3,3,6] - d[0,3,4,6] - d[0,4,0,6] - d[0,4,1,6] - d[0,4,2,6]
   - d[0,4,3,6] - d[0,4,4,6] >= 0
 water_sufficiency_0_7: q[0,7] - d[0,0,0,7] - d[0,0,1,7] - d[0,0,2,7]
   - d[0,0,3,7] - d[0,0,4,7] - d[0,1,0,7] - d[0,1,1,7] - d[0,1,2,7]
   - d[0,1,3,7] - d[0,1,4,7] - d[0,2,0,7] - d[0,2,1,7] - d[0,2,2,7]
   - d[0,2,3,7] - d[0,2,4,7] - d[0,3,0,7] - d[0,3,1,7] - d[0,3,2,7]
   - d[0,3,3,7] - d[0,3,4,7] - d[0,4,0,7] - d[0,4,1,7] - d[0,4,2,7]
   - d[0,4,3,7] - d[0,4,4,7] >= 0
 water_sufficiency_0_8: q[0,8] - d[0,0,0,8] - d[0,0,1,8] - d[0,0,2,8]
   - d[0,0,3,8] - d[0,0,4,8] - d[0,1,0,8] - d[0,1,1,8] - d[0,1,2,8]
   - d[0,1,3,8] - d[0,1,4,8] - d[0,2,0,8] - d[0,2,1,8] - d[0,2,2,8]
   - d[0,2,3,8] - d[0,2,4,8] - d[0,3,0,8] - d[0,3,1,8] - d[0,3,2,8]
   - d[0,3,3,8] - d[0,3,4,8] - d[0,4,0,8] - d[0,4,1,8] - d[0,4,2,8]
   - d[0,4,3,8] - d[0,4,4,8] >= 0
 water_sufficiency_0_9: q[0,9] - d[0,0,0,9] - d[0,0,1,9] - d[0,0,2,9]
   - d[0,0,3,9] - d[0,0,4,9] - d[0,1,0,9] - d[0,1,1,9] - d[0,1,2,9]
   - d[0,1,3,9] - d[0,1,4,9] - d[0,2,0,9] - d[0,2,1,9] - d[0,2,2,9]
   - d[0,2,3,9] - d[0,2,4,9] - d[0,3,0,9] - d[0,3,1,9] - d[0,3,2,9]
   - d[0,3,3,9] - d[0,3,4,9] - d[0,4,0,9] - d[0,4,1,9] - d[0,4,2,9]
   - d[0,4,3,9] - d[0,4,4,9] >= 0
 water_sufficiency_1_0: q[1,0] - d[1,0,0,0] - d[1,0,1,0] - d[1,0,2,0]
   - d[1,0,3,0] - d[1,0,4,0] - d[1,1,0,0] - d[1,1,1,0] - d[1,1,2,0]
   - d[1,1,3,0] - d[1,1,4,0] - d[1,2,0,0] - d[1,2,1,0] - d[1,2,2,0]
   - d[1,2,3,0] - d[1,2,4,0] - d[1,3,0,0] - d[1,3,1,0] - d[1,3,2,0]
   - d[1,3,3,0] - d[1,3,4,0] - d[1,4,0,0] - d[1,4,1,0] - d[1,4,2,0]
   - d[1,4,3,0] - d[1,4,4,0] >= 0
 water_sufficiency_1_1: q[1,1] - d[1,0,0,1] - d[1,0,1,1] - d[1,0,2,1]
   - d[1,0,3,1] - d[1,0,4,1] - d[1,1,0,1] - d[1,1,1,1] - d[1,1,2,1]
   - d[1,1,3,1] - d[1,1,4,1] - d[1,2,0,1] - d[1,2,1,1] - d[1,2,2,1]
   - d[1,2,3,1] - d[1,2,4,1] - d[1,3,0,1] - d[1,3,1,1] - d[1,3,2,1]
   - d[1,3,3,1] - d[1,3,4,1] - d[1,4,0,1] - d[1,4,1,1] - d[1,4,2,1]
   - d[1,4,3,1] - d[1,4,4,1] >= 0
 water_sufficiency_1_2: q[1,2] - d[1,0,0,2] - d[1,0,1,2] - d[1,0,2,2]
   - d[1,0,3,2] - d[1,0,4,2] - d[1,1,0,2] - d[1,1,1,2] - d[1,1,2,2]
   - d[1,1,3,2] - d[1,1,4,2] - d[1,2,0,2] - d[1,2,1,2] - d[1,2,2,2]
   - d[1,2,3,2] - d[1,2,4,2] - d[1,3,0,2] - d[1,3,1,2] - d[1,3,2,2]
   - d[1,3,3,2] - d[1,3,4,2] - d[1,4,0,2] - d[1,4,1,2] - d[1,4,2,2]
   - d[1,4,3,2] - d[1,4,4,2] >= 0
 water_sufficiency_1_3: q[1,3] - d[1,0,0,3] - d[1,0,1,3] - d[1,0,2,3]
   - d[1,0,3,3] - d[1,0,4,3] - d[1,1,0,3] - d[1,1,1,3] - d[1,1,2,3]
   - d[1,1,3,3] - d[1,1,4,3] - d[1,2,0,3] - d[1,2,1,3] - d[1,2,2,3]
   - d[1,2,3,3] - d[1,2,4,3] - d[1,3,0,3] - d[1,3,1,3] - d[1,3,2,3]
   - d[1,3,3,3] - d[1,3,4,3] - d[1,4,0,3] - d[1,4,1,3] - d[1,4,2,3]
   - d[1,4,3,3] - d[1,4,4,3] >= 0
 water_sufficiency_1_4: q[1,4] - d[1,0,0,4] - d[1,0,1,4] - d[1,0,2,4]
   - d[1,0,3,4] - d[1,0,4,4] - d[1,1,0,4] - d[1,1,1,4] - d[1,1,2,4]
   - d[1,1,3,4] - d[1,1,4,4] - d[1,2,0,4] - d[1,2,1,4] - d[1,2,2,4]
   - d[1,2,3,4] - d[1,2,4,4] - d[1,3,0,4] - d[1,3,1,4] - d[1,3,2,4]
   - d[1,3,3,4] - d[1,3,4,4] - d[1,4,0,4] - d[1,4,1,4] - d[1,4,2,4]
   - d[1,4,3,4] - d[1,4,4,4] >= 0
 water_sufficiency_1_5: q[1,5] - d[1,0,0,5] - d[1,0,1,5] - d[1,0,2,5]
   - d[1,0,3,5] - d[1,0,4,5] - d[1,1,0,5] - d[1,1,1,5] - d[1,1,2,5]
   - d[1,1,3,5] - d[1,1,4,5] - d[1,2,0,5] - d[1,2,1,5] - d[1,2,2,5]
   - d[1,2,3,5] - d[1,2,4,5] - d[1,3,0,5] - d[1,3,1,5] - d[1,3,2,5]
   - d[1,3,3,5] - d[1,3,4,5] - d[1,4,0,5] - d[1,4,1,5] - d[1,4,2,5]
   - d[1,4,3,5] - d[1,4,4,5] >= 0
 water_sufficiency_1_6: q[1,6] - d[1,0,0,6] - d[1,0,1,6] - d[1,0,2,6]
   - d[1,0,3,6] - d[1,0,4,6] - d[1,1,0,6] - d[1,1,1,6] - d[1,1,2,6]
   - d[1,1,3,6] - d[1,1,4,6] - d[1,2,0,6] - d[1,2,1,6] - d[1,2,2,6]
   - d[1,2,3,6] - d[1,2,4,6] - d[1,3,0,6] - d[1,3,1,6] - d[1,3,2,6]
   - d[1,3,3,6] - d[1,3,4,6] - d[1,4,0,6] - d[1,4,1,6] - d[1,4,2,6]
   - d[1,4,3,6] - d[1,4,4,6] >= 0
 water_sufficiency_1_7: q[1,7] - d[1,0,0,7] - d[1,0,1,7] - d[1,0,2,7]
   - d[1,0,3,7] - d[1,0,4,7] - d[1,1,0,7] - d[1,1,1,7] - d[1,1,2,7]
   - d[1,1,3,7] - d[1,1,4,7] - d[1,2,0,7] - d[1,2,1,7] - d[1,2,2,7]
   - d[1,2,3,7] - d[1,2,4,7] - d[1,3,0,7] - d[1,3,1,7] - d[1,3,2,7]
   - d[1,3,3,7] - d[1,3,4,7] - d[1,4,0,7] - d[1,4,1,7] - d[1,4,2,7]
   - d[1,4,3,7] - d[1,4,4,7] >= 0
 water_sufficiency_1_8: q[1,8] - d[1,0,0,8] - d[1,0,1,8] - d[1,0,2,8]
   - d[1,0,3,8] - d[1,0,4,8] - d[1,1,0,8] - d[1,1,1,8] - d[1,1,2,8]
   - d[1,1,3,8] - d[1,1,4,8] - d[1,2,0,8] - d[1,2,1,8] - d[1,2,2,8]
   - d[1,2,3,8] - d[1,2,4,8] - d[1,3,0,8] - d[1,3,1,8] - d[1,3,2,8]
   - d[1,3,3,8] - d[1,3,4,8] - d[1,4,0,8] - d[1,4,1,8] - d[1,4,2,8]
   - d[1,4,3,8] - d[1,4,4,8] >= 0
 water_sufficiency_1_9: q[1,9] - d[1,0,0,9] - d[1,0,1,9] - d[1,0,2,9]
   - d[1,0,3,9] - d[1,0,4,9] - d[1,1,0,9] - d[1,1,1,9] - d[1,1,2,9]
   - d[1,1,3,9] - d[1,1,4,9] - d[1,2,0,9] - d[1,2,1,9] - d[1,2,2,9]
   - d[1,2,3,9] - d[1,2,4,9] - d[1,3,0,9] - d[1,3,1,9] - d[1,3,2,9]
   - d[1,3,3,9] - d[1,3,4,9] - d[1,4,0,9] - d[1,4,1,9] - d[1,4,2,9]
   - d[1,4,3,9] - d[1,4,4,9] >= 0
 water_sufficiency_2_0: q[2,0] - d[2,0,0,0] - d[2,0,1,0] - d[2,0,2,0]
   - d[2,0,3,0] - d[2,0,4,0] - d[2,1,0,0] - d[2,1,1,0] - d[2,1,2,0]
   - d[2,1,3,0] - d[2,1,4,0] - d[2,2,0,0] - d[2,2,1,0] - d[2,2,2,0]
   - d[2,2,3,0] - d[2,2,4,0] - d[2,3,0,0] - d[2,3,1,0] - d[2,3,2,0]
   - d[2,3,3,0] - d[2,3,4,0] - d[2,4,0,0] - d[2,4,1,0] - d[2,4,2,0]
   - d[2,4,3,0] - d[2,4,4,0] >= 0
 water_sufficiency_2_1: q[2,1] - d[2,0,0,1] - d[2,0,1,1] - d[2,0,2,1]
   - d[2,0,3,1] - d[2,0,4,1] - d[2,1,0,1] - d[2,1,1,1] - d[2,1,2,1]
   - d[2,1,3,1] - d[2,1,4,1] - d[2,2,0,1] - d[2,2,1,1] - d[2,2,2,1]
   - d[2,2,3,1] - d[2,2,4,1] - d[2,3,0,1] - d[2,3,1,1] - d[2,3,2,1]
   - d[2,3,3,1] - d[2,3,4,1] - d[2,4,0,1] - d[2,4,1,1] - d[2,4,2,1]
   - d[2,4,3,1] - d[2,4,4,1] >= 0
 water_sufficiency_2_2: q[2,2] - d[2,0,0,2] - d[2,0,1,2] - d[2,0,2,2]
   - d[2,0,3,2] - d[2,0,4,2] - d[2,1,0,2] - d[2,1,1,2] - d[2,1,2,2]
   - d[2,1,3,2] - d[2,1,4,2] - d[2,2,0,2] - d[2,2,1,2] - d[2,2,2,2]
   - d[2,2,3,2] - d[2,2,4,2] - d[2,3,0,2] - d[2,3,1,2] - d[2,3,2,2]
   - d[2,3,3,2] - d[2,3,4,2] - d[2,4,0,2] - d[2,4,1,2] - d[2,4,2,2]
   - d[2,4,3,2] - d[2,4,4,2] >= 0
 water_sufficiency_2_3: q[2,3] - d[2,0,0,3] - d[2,0,1,3] - d[2,0,2,3]
   - d[2,0,3,3] - d[2,0,4,3] - d[2,1,0,3] - d[2,1,1,3] - d[2,1,2,3]
   - d[2,1,3,3] - d[2,1,4,3] - d[2,2,0,3] - d[2,2,1,3] - d[2,2,2,3]
   - d[2,2,3,3] - d[2,2,4,3] - d[2,3,0,3] - d[2,3,1,3] - d[2,3,2,3]
   - d[2,3,3,3] - d[2,3,4,3] - d[2,4,0,3] - d[2,4,1,3] - d[2,4,2,3]
   - d[2,4,3,3] - d[2,4,4,3] >= 0
 water_sufficiency_2_4: q[2,4] - d[2,0,0,4] - d[2,0,1,4] - d[2,0,2,4]
   - d[2,0,3,4] - d[2,0,4,4] - d[2,1,0,4] - d[2,1,1,4] - d[2,1,2,4]
   - d[2,1,3,4] - d[2,1,4,4] - d[2,2,0,4] - d[2,2,1,4] - d[2,2,2,4]
   - d[2,2,3,4] - d[2,2,4,4] - d[2,3,0,4] - d[2,3,1,4] - d[2,3,2,4]
   - d[2,3,3,4] - d[2,3,4,4] - d[2,4,0,4] - d[2,4,1,4] - d[2,4,2,4]
   - d[2,4,3,4] - d[2,4,4,4] >= 0
 water_sufficiency_2_5: q[2,5] - d[2,0,0,5] - d[2,0,1,5] - d[2,0,2,5]
   - d[2,0,3,5] - d[2,0,4,5] - d[2,1,0,5] - d[2,1,1,5] - d[2,1,2,5]
   - d[2,1,3,5] - d[2,1,4,5] - d[2,2,0,5] - d[2,2,1,5] - d[2,2,2,5]
   - d[2,2,3,5] - d[2,2,4,5] - d[2,3,0,5] - d[2,3,1,5] - d[2,3,2,5]
   - d[2,3,3,5] - d[2,3,4,5] - d[2,4,0,5] - d[2,4,1,5] - d[2,4,2,5]
   - d[2,4,3,5] - d[2,4,4,5] >= 0
 water_sufficiency_2_6: q[2,6] - d[2,0,0,6] - d[2,0,1,6] - d[2,0,2,6]
   - d[2,0,3,6] - d[2,0,4,6] - d[2,1,0,6] - d[2,1,1,6] - d[2,1,2,6]
   - d[2,1,3,6] - d[2,1,4,6] - d[2,2,0,6] - d[2,2,1,6] - d[2,2,2,6]
   - d[2,2,3,6] - d[2,2,4,6] - d[2,3,0,6] - d[2,3,1,6] - d[2,3,2,6]
   - d[2,3,3,6] - d[2,3,4,6] - d[2,4,0,6] - d[2,4,1,6] - d[2,4,2,6]
   - d[2,4,3,6] - d[2,4,4,6] >= 0
 water_sufficiency_2_7: q[2,7] - d[2,0,0,7] - d[2,0,1,7] - d[2,0,2,7]
   - d[2,0,3,7] - d[2,0,4,7] - d[2,1,0,7] - d[2,1,1,7] - d[2,1,2,7]
   - d[2,1,3,7] - d[2,1,4,7] - d[2,2,0,7] - d[2,2,1,7] - d[2,2,2,7]
   - d[2,2,3,7] - d[2,2,4,7] - d[2,3,0,7] - d[2,3,1,7] - d[2,3,2,7]
   - d[2,3,3,7] - d[2,3,4,7] - d[2,4,0,7] - d[2,4,1,7] - d[2,4,2,7]
   - d[2,4,3,7] - d[2,4,4,7] >= 0
 water_sufficiency_2_8: q[2,8] - d[2,0,0,8] - d[2,0,1,8] - d[2,0,2,8]
   - d[2,0,3,8] - d[2,0,4,8] - d[2,1,0,8] - d[2,1,1,8] - d[2,1,2,8]
   - d[2,1,3,8] - d[2,1,4,8] - d[2,2,0,8] - d[2,2,1,8] - d[2,2,2,8]
   - d[2,2,3,8] - d[2,2,4,8] - d[2,3,0,8] - d[2,3,1,8] - d[2,3,2,8]
   - d[2,3,3,8] - d[2,3,4,8] - d[2,4,0,8] - d[2,4,1,8] - d[2,4,2,8]
   - d[2,4,3,8] - d[2,4,4,8] >= 0
 water_sufficiency_2_9: q[2,9] - d[2,0,0,9] - d[2,0,1,9] - d[2,0,2,9]
   - d[2,0,3,9] - d[2,0,4,9] - d[2,1,0,9] - d[2,1,1,9] - d[2,1,2,9]
   - d[2,1,3,9] - d[2,1,4,9] - d[2,2,0,9] - d[2,2,1,9] - d[2,2,2,9]
   - d[2,2,3,9] - d[2,2,4,9] - d[2,3,0,9] - d[2,3,1,9] - d[2,3,2,9]
   - d[2,3,3,9] - d[2,3,4,9] - d[2,4,0,9] - d[2,4,1,9] - d[2,4,2,9]
   - d[2,4,3,9] - d[2,4,4,9] >= 0
 q_ub[0,0]: q[0,0] <= 15000
 q_ub[0,1]: q[0,1] <= 15000
 q_ub[0,2]: q[0,2] <= 15000
 q_ub[0,3]: q[0,3] <= 15000
 q_ub[0,4]: q[0,4] <= 15000
 q_ub[0,5]: q[0,5] <= 15000
 q_ub[0,6]: q[0,6] <= 15000
 q_ub[0,7]: q[0,7] <= 15000
 q_ub[0,8]: q[0,8] <= 15000
 q_ub[0,9]: q[0,9] <= 15000
 q_ub[1,0]: q[1,0] <= 3000
 q_ub[1,1]: q[1,1] <= 3000
 q_ub[1,2]: q[1,2] <= 3000
 q_ub[1,3]: q[1,3] <= 3000
 q_ub[1,4]: q[1,4] <= 3000
 q_ub[1,5]: q[1,5] <= 3000
 q_ub[1,6]: q[1,6] <= 3000
 q_ub[1,7]: q[1,7] <= 3000
 q_ub[1,8]: q[1,8] <= 3000
 q_ub[1,9]: q[1,9] <= 3000
 q_ub[2,0]: q[2,0] <= 3000
 q_ub[2,1]: q[2,1] <= 3000
 q_ub[2,2]: q[2,2] <= 3000
 q_ub[2,3]: q[2,3] <= 3000
 q_ub[2,4]: q[2,4] <= 3000
 q_ub[2,5]: q[2,5] <= 3000
 q_ub[2,6]: q[2,6] <= 3000
 q_ub[2,7]: q[2,7] <= 3000
 q_ub[2,8]: q[2,8] <= 3000
 q_ub[2,9]: q[2,9] <= 3000
 s_init_0_0: - d[0,0,0,0] - d[1,0,0,0] - d[2,0,0,0] + s[0,0,0] = 0
 s_0_0_1: - d[0,0,0,1] - d[1,0,0,1] - d[2,0,0,1] - s[0,0,0] + s[0,0,1] = 0
 s_0_0_2: - d[0,0,0,2] - d[1,0,0,2] - d[2,0,0,2] - s[0,0,1] + s[0,0,2] = 0
 s_0_0_3: - d[0,0,0,3] - d[1,0,0,3] - d[2,0,0,3] - s[0,0,2] + s[0,0,3] = 0
 s_0_0_4: - d[0,0,0,4] - d[1,0,0,4] - d[2,0,0,4] - s[0,0,3] + s[0,0,4] = 0
 s_0_0_5: - d[0,0,0,5] - d[1,0,0,5] - d[2,0,0,5] - s[0,0,4] + s[0,0,5] = 0
 s_0_0_6: - d[0,0,0,6] - d[1,0,0,6] - d[2,0,0,6] - s[0,0,5] + s[0,0,6] = 0
 s_0_0_7: - d[0,0,0,7] - d[1,0,0,7] - d[2,0,0,7] - s[0,0,6] + s[0,0,7] = 0
 s_0_0_8: - d[0,0,0,8] - d[1,0,0,8] - d[2,0,0,8] - s[0,0,7] + s[0,0,8] = 0
 s_0_0_9: - d[0,0,0,9] - d[1,0,0,9] - d[2,0,0,9] - s[0,0,8] + s[0,0,9] = 0
 s_cap_0_0_0: s[0,0,0] <= 2000
 s_cap_0_0_1: s[0,0,1] <= 2000
 s_cap_0_0_2: s[0,0,2] <= 2000
 s_cap_0_0_3: s[0,0,3] <= 2000
 s_cap_0_0_4: s[0,0,4] <= 2000
 s_cap_0_0_5: s[0,0,5] <= 2000
 s_cap_0_0_6: s[0,0,6] <= 2000
 s_cap_0_0_7: s[0,0,7] <= 2000
 s_cap_0_0_8: s[0,0,8] <= 2000
 s_cap_0_0_9: s[0,0,9] <= 2000
 s_init_0_1: - d[0,0,1,0] - d[1,0,1,0] - d[2,0,1,0] + s[0,1,0] = 0
 s_0_1_1: - d[0,0,1,1] - d[1,0,1,1] - d[2,0,1,1] - s[0,1,0] + s[0,1,1] = 0
 s_0_1_2: - d[0,0,1,2] - d[1,0,1,2] - d[2,0,1,2] - s[0,1,1] + s[0,1,2] = 0
 s_0_1_3: - d[0,0,1,3] - d[1,0,1,3] - d[2,0,1,3] - s[0,1,2] + s[0,1,3] = 0
 s_0_1_4: - d[0,0,1,4] - d[1,0,1,4] - d[2,0,1,4] - s[0,1,3] + s[0,1,4] = 0
 s_0_1_5: - d[0,0,1,5] - d[1,0,1,5] - d[2,0,1,5] - s[0,1,4] + s[0,1,5] = 0
 s_0_1_6: - d[0,0,1,6] - d[1,0,1,6] - d[2,0,1,6] - s[0,1,5] + s[0,1,6] = 0
 s_0_1_7: - d[0,0,1,7] - d[1,0,1,7] - d[2,0,1,7] - s[0,1,6] + s[0,1,7] = 0
 s_0_1_8: - d[0,0,1,8] - d[1,0,1,8] - d[2,0,1,8] - s[0,1,7] + s[0,1,8] = 0
 s_0_1_9: - d[0,0,1,9] - d[1,0,1,9] - d[2,0,1,9] - s[0,1,8] + s[0,1,9] = 0
 s_cap_0_1_0: s[0,1,0] <= 2000
 s_cap_0_1_1: s[0,1,1] <= 2000
 s_cap_0_1_2: s[0,1,2] <= 2000
 s_cap_0_1_3: s[0,1,3] <= 2000
 s_cap_0_1_4: s[0,1,4] <= 2000
 s_cap_0_1_5: s[0,1,5] <= 2000
 s_cap_0_1_6: s[0,1,6] <= 2000
 s_cap_0_1_7: s[0,1,7] <= 2000
 s_cap_0_1_8: s[0,1,8] <= 2000
 s_cap_0_1_9: s[0,1,9] <= 2000
 s_init_0_2: - d[0,0,2,0] - d[1,0,2,0] - d[2,0,2,0] + s[0,2,0] = 0
 s_0_2_1: - d[0,0,2,1] - d[1,0,2,1] - d[2,0,2,1] - s[0,2,0] + s[0,2,1] = 0
 s_0_2_2: - d[0,0,2,2] - d[1,0,2,2] - d[2,0,2,2] - s[0,2,1] + s[0,2,2] = 0
 s_0_2_3: - d[0,0,2,3] - d[1,0,2,3] - d[2,0,2,3] - s[0,2,2] + s[0,2,3] = 0
 s_0_2_4: - d[0,0,2,4] - d[1,0,2,4] - d[2,0,2,4] - s[0,2,3] + s[0,2,4] = 0
 s_0_2_5: - d[0,0,2,5] - d[1,0,2,5] - d[2,0,2,5] - s[0,2,4] + s[0,2,5] = 0
 s_0_2_6: - d[0,0,2,6] - d[1,0,2,6] - d[2,0,2,6] - s[0,2,5] + s[0,2,6] = 0
 s_0_2_7: - d[0,0,2,7] - d[1,0,2,7] - d[2,0,2,7] - s[0,2,6] + s[0,2,7] = 0
 s_0_2_8: - d[0,0,2,8] - d[1,0,2,8] - d[2,0,2,8] - s[0,2,7] + s[0,2,8] = 0
 s_0_2_9: - d[0,0,2,9] - d[1,0,2,9] - d[2,0,2,9] - s[0,2,8] + s[0,2,9] = 0
 s_cap_0_2_0: s[0,2,0] <= 2000
 s_cap_0_2_1: s[0,2,1] <= 2000
 s_cap_0_2_2: s[0,2,2] <= 2000
 s_cap_0_2_3: s[0,2,3] <= 2000
 s_cap_0_2_4: s[0,2,4] <= 2000
 s_cap_0_2_5: s[0,2,5] <= 2000
 s_cap_0_2_6: s[0,2,6] <= 2000
 s_cap_0_2_7: s[0,2,7] <= 2000
 s_cap_0_2_8: s[0,2,8] <= 2000
 s_cap_0_2_9: s[0,2,9] <= 2000
 s_init_0_3: - d[0,0,3,0] - d[1,0,3,0] - d[2,0,3,0] + s[0,3,0] = 0
 s_0_3_1: - d[0,0,3,1] - d[1,0,3,1] - d[2,0,3,1] - s[0,3,0] + s[0,3,1] = 0
 s_0_3_2: - d[0,0,3,2] - d[1,0,3,2] - d[2,0,3,2] - s[0,3,1] + s[0,3,2] = 0
 s_0_3_3: - d[0,0,3,3] - d[1,0,3,3] - d[2,0,3,3] - s[0,3,2] + s[0,3,3] = 0
 s_0_3_4: - d[0,0,3,4] - d[1,0,3,4] - d[2,0,3,4] - s[0,3,3] + s[0,3,4] = 0
 s_0_3_5: - d[0,0,3,5] - d[1,0,3,5] - d[2,0,3,5] - s[0,3,4] + s[0,3,5] = 0
 s_0_3_6: - d[0,0,3,6] - d[1,0,3,6] - d[2,0,3,6] - s[0,3,5] + s[0,3,6] = 0
 s_0_3_7: - d[0,0,3,7] - d[1,0,3,7] - d[2,0,3,7] - s[0,3,6] + s[0,3,7] = 0
 s_0_3_8: - d[0,0,3,8] - d[1,0,3,8] - d[2,0,3,8] - s[0,3,7] + s[0,3,8] = 0
 s_0_3_9: - d[0,0,3,9] - d[1,0,3,9] - d[2,0,3,9] - s[0,3,8] + s[0,3,9] = 0
 s_cap_0_3_0: s[0,3,0] <= 2000
 s_cap_0_3_1: s[0,3,1] <= 2000
 s_cap_0_3_2: s[0,3,2] <= 2000
 s_cap_0_3_3: s[0,3,3] <= 2000
 s_cap_0_3_4: s[0,3,4] <= 2000
 s_cap_0_3_5: s[0,3,5] <= 2000
 s_cap_0_3_6: s[0,3,6] <= 2000
 s_cap_0_3_7: s[0,3,7] <= 2000
 s_cap_0_3_8: s[0,3,8] <= 2000
 s_cap_0_3_9: s[0,3,9] <= 2000
 s_init_0_4: - d[0,0,4,0] - d[1,0,4,0] - d[2,0,4,0] + s[0,4,0] = 0
 s_0_4_1: - d[0,0,4,1] - d[1,0,4,1] - d[2,0,4,1] - s[0,4,0] + s[0,4,1] = 0
 s_0_4_2: - d[0,0,4,2] - d[1,0,4,2] - d[2,0,4,2] - s[0,4,1] + s[0,4,2] = 0
 s_0_4_3: - d[0,0,4,3] - d[1,0,4,3] - d[2,0,4,3] - s[0,4,2] + s[0,4,3] = 0
 s_0_4_4: - d[0,0,4,4] - d[1,0,4,4] - d[2,0,4,4] - s[0,4,3] + s[0,4,4] = 0
 s_0_4_5: - d[0,0,4,5] - d[1,0,4,5] - d[2,0,4,5] - s[0,4,4] + s[0,4,5] = 0
 s_0_4_6: - d[0,0,4,6] - d[1,0,4,6] - d[2,0,4,6] - s[0,4,5] + s[0,4,6] = 0
 s_0_4_7: - d[0,0,4,7] - d[1,0,4,7] - d[2,0,4,7] - s[0,4,6] + s[0,4,7] = 0
 s_0_4_8: - d[0,0,4,8] - d[1,0,4,8] - d[2,0,4,8] - s[0,4,7] + s[0,4,8] = 0
 s_0_4_9: - d[0,0,4,9] - d[1,0,4,9] - d[2,0,4,9] - s[0,4,8] + s[0,4,9] = 0
 s_cap_0_4_0: s[0,4,0] <= 2000
 s_cap_0_4_1: s[0,4,1] <= 2000
 s_cap_0_4_2: s[0,4,2] <= 2000
 s_cap_0_4_3: s[0,4,3] <= 2000
 s_cap_0_4_4: s[0,4,4] <= 2000
 s_cap_0_4_5: s[0,4,5] <= 2000
 s_cap_0_4_6: s[0,4,6] <= 2000
 s_cap_0_4_7: s[0,4,7] <= 2000
 s_cap_0_4_8: s[0,4,8] <= 2000
 s_cap_0_4_9: s[0,4,9] <= 2000
 s_init_1_0: - d[0,1,0,0] - d[1,1,0,0] - d[2,1,0,0] + s[1,0,0] = 0
 s_1_0_1: - d[0,1,0,1] - d[1,1,0,1] - d[2,1,0,1] - s[1,0,0] + s[1,0,1] = 0
 s_1_0_2: - d[0,1,0,2] - d[1,1,0,2] - d[2,1,0,2] - s[1,0,1] + s[1,0,2] = 0
 s_1_0_3: - d[0,1,0,3] - d[1,1,0,3] - d[2,1,0,3] - s[1,0,2] + s[1,0,3] = 0
 s_1_0_4: - d[0,1,0,4] - d[1,1,0,4] - d[2,1,0,4] - s[1,0,3] + s[1,0,4] = 0
 s_1_0_5: - d[0,1,0,5] - d[1,1,0,5] - d[2,1,0,5] - s[1,0,4] + s[1,0,5] = 0
 s_1_0_6: - d[0,1,0,6] - d[1,1,0,6] - d[2,1,0,6] - s[1,0,5] + s[1,0,6] = 0
 s_1_0_7: - d[0,1,0,7] - d[1,1,0,7] - d[2,1,0,7] - s[1,0,6] + s[1,0,7] = 0
 s_1_0_8: - d[0,1,0,8] - d[1,1,0,8] - d[2,1,0,8] - s[1,0,7] + s[1,0,8] = 0
 s_1_0_9: - d[0,1,0,9] - d[1,1,0,9] - d[2,1,0,9] - s[1,0,8] + s[1,0,9] = 0
 s_cap_1_0_0: s[1,0,0] <= 2000
 s_cap_1_0_1: s[1,0,1] <= 2000
 s_cap_1_0_2: s[1,0,2] <= 2000
 s_cap_1_0_3: s[1,0,3] <= 2000
 s_cap_1_0_4: s[1,0,4] <= 2000
 s_cap_1_0_5: s[1,0,5] <= 2000
 s_cap_1_0_6: s[1,0,6] <= 2000
 s_cap_1_0_7: s[1,0,7] <= 2000
 s_cap_1_0_8: s[1,0,8] <= 2000
 s_cap_1_0_9: s[1,0,9] <= 2000
 s_init_1_1: - d[0,1,1,0] - d[1,1,1,0] - d[2,1,1,0] + s[1,1,0] = 0
 s_1_1_1: - d[0,1,1,1] - d[1,1,1,1] - d[2,1,1,1] - s[1,1,0] + s[1,1,1] = 0
 s_1_1_2: - d[0,1,1,2] - d[1,1,1,2] - d[2,1,1,2] - s[1,1,1] + s[1,1,2] = 0
 s_1_1_3: - d[0,1,1,3] - d[1,1,1,3] - d[2,1,1,3] - s[1,1,2] + s[1,1,3] = 0
 s_1_1_4: - d[0,1,1,4] - d[1,1,1,4] - d[2,1,1,4] - s[1,1,3] + s[1,1,4] = 0
 s_1_1_5: - d[0,1,1,5] - d[1,1,1,5] - d[2,1,1,5] - s[1,1,4] + s[1,1,5] = 0
 s_1_1_6: - d[0,1,1,6] - d[1,1,1,6] - d[2,1,1,6] - s[1,1,5] + s[1,1,6] = 0
 s_1_1_7: - d[0,1,1,7] - d[1,1,1,7] - d[2,1,1,7] - s[1,1,6] + s[1,1,7] = 0
 s_1_1_8: - d[0,1,1,8] - d[1,1,1,8] - d[2,1,1,8] - s[1,1,7] + s[1,1,8] = 0
 s_1_1_9: - d[0,1,1,9] - d[1,1,1,9] - d[2,1,1,9] - s[1,1,8] + s[1,1,9] = 0
 s_cap_1_1_0: s[1,1,0] <= 2000
 s_cap_1_1_1: s[1,1,1] <= 2000
 s_cap_1_1_2: s[1,1,2] <= 2000
 s_cap_1_1_3: s[1,1,3] <= 2000
 s_cap_1_1_4: s[1,1,4] <= 2000
 s_cap_1_1_5: s[1,1,5] <= 2000
 s_cap_1_1_6: s[1,1,6] <= 2000
 s_cap_1_1_7: s[1,1,7] <= 2000
 s_cap_1_1_8: s[1,1,8] <= 2000
 s_cap_1_1_9: s[1,1,9] <= 2000
 s_init_1_2: - d[0,1,2,0] - d[1,1,2,0] - d[2,1,2,0] + s[1,2,0] = 0
 s_1_2_1: - d[0,1,2,1] - d[1,1,2,1] - d[2,1,2,1] - s[1,2,0] + s[1,2,1] = 0
 s_1_2_2: - d[0,1,2,2] - d[1,1,2,2] - d[2,1,2,2] - s[1,2,1] + s[1,2,2] = 0
 s_1_2_3: - d[0,1,2,3] - d[1,1,2,3] - d[2,1,2,3] - s[1,2,2] + s[1,2,3] = 0
 s_1_2_4: - d[0,1,2,4] - d[1,1,2,4] - d[2,1,2,4] - s[1,2,3] + s[1,2,4] = 0
 s_1_2_5: - d[0,1,2,5] - d[1,1,2,5] - d[2,1,2,5] - s[1,2,4] + s[1,2,5] = 0
 s_1_2_6: - d[0,1,2,6] - d[1,1,2,6] - d[2,1,2,6] - s[1,2,5] + s[1,2,6] = 0
 s_1_2_7: - d[0,1,2,7] - d[1,1,2,7] - d[2,1,2,7] - s[1,2,6] + s[1,2,7] = 0
 s_1_2_8: - d[0,1,2,8] - d[1,1,2,8] - d[2,1,2,8] - s[1,2,7] + s[1,2,8] = 0
 s_1_2_9: - d[0,1,2,9] - d[1,1,2,9] - d[2,1,2,9] - s[1,2,8] + s[1,2,9] = 0
 s_cap_1_2_0: s[1,2,0] <= 2000
 s_cap_1_2_1: s[1,2,1] <= 2000
 s_cap_1_2_2: s[1,2,2] <= 2000
 s_cap_1_2_3: s[1,2,3] <= 2000
 s_cap_1_2_4: s[1,2,4] <= 2000
 s_cap_1_2_5: s[1,2,5] <= 2000
 s_cap_1_2_6: s[1,2,6] <= 2000
 s_cap_1_2_7: s[1,2,7] <= 2000
 s_cap_1_2_8: s[1,2,8] <= 2000
 s_cap_1_2_9: s[1,2,9] <= 2000
 s_init_1_3: - d[0,1,3,0] - d[1,1,3,0] - d[2,1,3,0] + s[1,3,0] = 0
 s_1_3_1: - d[0,1,3,1] - d[1,1,3,1] - d[2,1,3,1] - s[1,3,0] + s[1,3,1] = 0
 s_1_3_2: - d[0,1,3,2] - d[1,1,3,2] - d[2,1,3,2] - s[1,3,1] + s[1,3,2] = 0
 s_1_3_3: - d[0,1,3,3] - d[1,1,3,3] - d[2,1,3,3] - s[1,3,2] + s[1,3,3] = 0
 s_1_3_4: - d[0,1,3,4] - d[1,1,3,4] - d[2,1,3,4] - s[1,3,3] + s[1,3,4] = 0
 s_1_3_5: - d[0,1,3,5] - d[1,1,3,5] - d[2,1,3,5] - s[1,3,4] + s[1,3,5] = 0
 s_1_3_6: - d[0,1,3,6] - d[1,1,3,6] - d[2,1,3,6] - s[1,3,5] + s[1,3,6] = 0
 s_1_3_7: - d[0,1,3,7] - d[1,1,3,7] - d[2,1,3,7] - s[1,3,6] + s[1,3,7] = 0
 s_1_3_8: - d[0,1,3,8] - d[1,1,3,8] - d[2,1,3,8] - s[1,3,7] + s[1,3,8] = 0
 s_1_3_9: - d[0,1,3,9] - d[1,1,3,9] - d[2,1,3,9] - s[1,3,8] + s[1,3,9] = 0
 s_cap_1_3_0: s[1,3,0] <= 2000
 s_cap_1_3_1: s[1,3,1] <= 2000
 s_cap_1_3_2: s[1,3,2] <= 2000
 s_cap_1_3_3: s[1,3,3] <= 2000
 s_cap_1_3_4: s[1,3,4] <= 2000
 s_cap_1_3_5: s[1,3,5] <= 2000
 s_cap_1_3_6: s[1,3,6] <= 2000
 s_cap_1_3_7: s[1,3,7] <= 2000
 s_cap_1_3_8: s[1,3,8] <= 2000
 s_cap_1_3_9: s[1,3,9] <= 2000
 s_init_1_4: - d[0,1,4,0] - d[1,1,4,0] - d[2,1,4,0] + s[1,4,0] = 0
 s_1_4_1: - d[0,1,4,1] - d[1,1,4,1] - d[2,1,4,1] - s[1,4,0] + s[1,4,1] = 0
 s_1_4_2: - d[0,1,4,2] - d[1,1,4,2] - d[2,1,4,2] - s[1,4,1] + s[1,4,2] = 0
 s_1_4_3: - d[0,1,4,3] - d[1,1,4,3] - d[2,1,4,3] - s[1,4,2] + s[1,4,3] = 0
 s_1_4_4: - d[0,1,4,4] - d[1,1,4,4] - d[2,1,4,4] - s[1,4,3] + s[1,4,4] = 0
 s_1_4_5: - d[0,1,4,5] - d[1,1,4,5] - d[2,1,4,5] - s[1,4,4] + s[1,4,5] = 0
 s_1_4_6: - d[0,1,4,6] - d[1,1,4,6] - d[2,1,4,6] - s[1,4,5] + s[1,4,6] = 0
 s_1_4_7: - d[0,1,4,7] - d[1,1,4,7] - d[2,1,4,7] - s[1,4,6] + s[1,4,7] = 0
 s_1_4_8: - d[0,1,4,8] - d[1,1,4,8] - d[2,1,4,8] - s[1,4,7] + s[1,4,8] = 0
 s_1_4_9: - d[0,1,4,9] - d[1,1,4,9] - d[2,1,4,9] - s[1,4,8] + s[1,4,9] = 0
 s_cap_1_4_0: s[1,4,0] <= 2000
 s_cap_1_4_1: s[1,4,1] <= 2000
 s_cap_1_4_2: s[1,4,2] <= 2000
 s_cap_1_4_3: s[1,4,3] <= 2000
 s_cap_1_4_4: s[1,4,4] <= 2000
 s_cap_1_4_5: s[1,4,5] <= 2000
 s_cap_1_4_6: s[1,4,6] <= 2000
 s_cap_1_4_7: s[1,4,7] <= 2000
 s_cap_1_4_8: s[1,4,8] <= 2000
 s_cap_1_4_9: s[1,4,9] <= 2000
 s_init_2_0: - d[0,2,0,0] - d[1,2,0,0] - d[2,2,0,0] + s[2,0,0] = 0
 s_2_0_1: - d[0,2,0,1] - d[1,2,0,1] - d[2,2,0,1] - s[2,0,0] + s[2,0,1] = 0
 s_2_0_2: - d[0,2,0,2] - d[1,2,0,2] - d[2,2,0,2] - s[2,0,1] + s[2,0,2] = 0
 s_2_0_3: - d[0,2,0,3] - d[1,2,0,3] - d[2,2,0,3] - s[2,0,2] + s[2,0,3] = 0
 s_2_0_4: - d[0,2,0,4] - d[1,2,0,4] - d[2,2,0,4] - s[2,0,3] + s[2,0,4] = 0
 s_2_0_5: - d[0,2,0,5] - d[1,2,0,5] - d[2,2,0,5] - s[2,0,4] + s[2,0,5] = 0
 s_2_0_6: - d[0,2,0,6] - d[1,2,0,6] - d[2,2,0,6] - s[2,0,5] + s[2,0,6] = 0
 s_2_0_7: - d[0,2,0,7] - d[1,2,0,7] - d[2,2,0,7] - s[2,0,6] + s[2,0,7] = 0
 s_2_0_8: - d[0,2,0,8] - d[1,2,0,8] - d[2,2,0,8] - s[2,0,7] + s[2,0,8] = 0
 s_2_0_9: - d[0,2,0,9] - d[1,2,0,9] - d[2,2,0,9] - s[2,0,8] + s[2,0,9] = 0
 s_cap_2_0_0: s[2,0,0] <= 2000
 s_cap_2_0_1: s[2,0,1] <= 2000
 s_cap_2_0_2: s[2,0,2] <= 2000
 s_cap_2_0_3: s[2,0,3] <= 2000
 s_cap_2_0_4: s[2,0,4] <= 2000
 s_cap_2_0_5: s[2,0,5] <= 2000
 s_cap_2_0_6: s[2,0,6] <= 2000
 s_cap_2_0_7: s[2,0,7] <= 2000
 s_cap_2_0_8: s[2,0,8] <= 2000
 s_cap_2_0_9: s[2,0,9] <= 2000
 s_init_2_1: - d[0,2,1,0] - d[1,2,1,0] - d[2,2,1,0] + s[2,1,0] = 0
 s_2_1_1: - d[0,2,1,1] - d[1,2,1,1] - d[2,2,1,1] - s[2,1,0] + s[2,1,1] = 0
 s_2_1_2: - d[0,2,1,2] - d[1,2,1,2] - d[2,2,1,2] - s[2,1,1] + s[2,1,2] = 0
 s_2_1_3: - d[0,2,1,3] - d[1,2,1,3] - d[2,2,1,3] - s[2,1,2] + s[2,1,3] = 0
 s_2_1_4: - d[0,2,1,4] - d[1,2,1,4] - d[2,2,1,4] - s[2,1,3] + s[2,1,4] = 0
 s_2_1_5: - d[0,2,1,5] - d[1,2,1,5] - d[2,2,1,5] - s[2,1,4] + s[2,1,5] = 0
 s_2_1_6: - d[0,2,1,6] - d[1,2,1,6] - d[2,2,1,6] - s[2,1,5] + s[2,1,6] = 0
 s_2_1_7: - d[0,2,1,7] - d[1,2,1,7] - d[2,2,1,7] - s[2,1,6] + s[2,1,7] = 0
 s_2_1_8: - d[0,2,1,8] - d[1,2,1,8] - d[2,2,1,8] - s[2,1,7] + s[2,1,8] = 0
 s_2_1_9: - d[0,2,1,9] - d[1,2,1,9] - d[2,2,1,9] - s[2,1,8] + s[2,1,9] = 0
 s_cap_2_1_0: s[2,1,0] <= 2000
 s_cap_2_1_1: s[2,1,1] <= 2000
 s_cap_2_1_2: s[2,1,2] <= 2000
 s_cap_2_1_3: s[2,1,3] <= 2000
 s_cap_2_1_4: s[2,1,4] <= 2000
 s_cap_2_1_5: s[2,1,5] <= 2000
 s_cap_2_1_6: s[2,1,6] <= 2000
 s_cap_2_1_7: s[2,1,7] <= 2000
 s_cap_2_1_8: s[2,1,8] <= 2000
 s_cap_2_1_9: s[2,1,9] <= 2000
 s_init_2_2: - d[0,2,2,0] - d[1,2,2,0] - d[2,2,2,0] + s[2,2,0] = 0
 s_2_2_1: - d[0,2,2,1] - d[1,2,2,1] - d[2,2,2,1] - s[2,2,0] + s[2,2,1] = 0
 s_2_2_2: - d[0,2,2,2] - d[1,2,2,2] - d[2,2,2,2] - s[2,2,1] + s[2,2,2] = 0
 s_2_2_3: - d[0,2,2,3] - d[1,2,2,3] - d[2,2,2,3] - s[2,2,2] + s[2,2,3] = 0
 s_2_2_4: - d[0,2,2,4] - d[1,2,2,4] - d[2,2,2,4] - s[2,2,3] + s[2,2,4] = 0
 s_2_2_5: - d[0,2,2,5] - d[1,2,2,5] - d[2,2,2,5] - s[2,2,4] + s[2,2,5] = 0
 s_2_2_6: - d[0,2,2,6] - d[1,2,2,6] - d[2,2,2,6] - s[2,2,5] + s[2,2,6] = 0
 s_2_2_7: - d[0,2,2,7] - d[1,2,2,7] - d[2,2,2,7] - s[2,2,6] + s[2,2,7] = 0
 s_2_2_8: - d[0,2,2,8] - d[1,2,2,8] - d[2,2,2,8] - s[2,2,7] + s[2,2,8] = 0
 s_2_2_9: - d[0,2,2,9] - d[1,2,2,9] - d[2,2,2,9] - s[2,2,8] + s[2,2,9] = 0
 s_cap_2_2_0: s[2,2,0] <= 2000
 s_cap_2_2_1: s[2,2,1] <= 2000
 s_cap_2_2_2: s[2,2,2] <= 2000
 s_cap_2_2_3: s[2,2,3] <= 2000
 s_cap_2_2_4: s[2,2,4] <= 2000
 s_cap_2_2_5: s[2,2,5] <= 2000
 s_cap_2_2_6: s[2,2,6] <= 2000
 s_cap_2_2_7: s[2,2,7] <= 2000
 s_cap_2_2_8: s[2,2,8] <= 2000
 s_cap_2_2_9: s[2,2,9] <= 2000
 s_init_2_3: - d[0,2,3,0] - d[1,2,3,0] - d[2,2,3,0] + s[2,3,0] = 0
 s_2_3_1: - d[0,2,3,1] - d[1,2,3,1] - d[2,2,3,1] - s[2,3,0] + s[2,3,1] = 0
 s_2_3_2: - d[0,2,3,2] - d[1,2,3,2] - d[2,2,3,2] - s[2,3,1] + s[2,3,2] = 0
 s_2_3_3: - d[0,2,3,3] - d[1,2,3,3] - d[2,2,3,3] - s[2,3,2] + s[2,3,3] = 0
 s_2_3_4: - d[0,2,3,4] - d[1,2,3,4] - d[2,2,3,4] - s[2,3,3] + s[2,3,4] = 0
 s_2_3_5: - d[0,2,3,5] - d[1,2,3,5] - d[2,2,3,5] - s[2,3,4] + s[2,3,5] = 0
 s_2_3_6: - d[0,2,3,6] - d[1,2,3,6] - d[2,2,3,6] - s[2,3,5] + s[2,3,6] = 0
 s_2_3_7: - d[0,2,3,7] - d[1,2,3,7] - d[2,2,3,7] - s[2,3,6] + s[2,3,7] = 0
 s_2_3_8: - d[0,2,3,8] - d[1,2,3,8] - d[2,2,3,8] - s[2,3,7] + s[2,3,8] = 0
 s_2_3_9: - d[0,2,3,9] - d[1,2,3,9] - d[2,2,3,9] - s[2,3,8] + s[2,3,9] = 0
 s_cap_2_3_0: s[2,3,0] <= 2000
 s_cap_2_3_1: s[2,3,1] <= 2000
 s_cap_2_3_2: s[2,3,2] <= 2000
 s_cap_2_3_3: s[2,3,3] <= 2000
 s_cap_2_3_4: s[2,3,4] <= 2000
 s_cap_2_3_5: s[2,3,5] <= 2000
 s_cap_2_3_6: s[2,3,6] <= 2000
 s_cap_2_3_7: s[2,3,7] <= 2000
 s_cap_2_3_8: s[2,3,8] <= 2000
 s_cap_2_3_9: s[2,3,9] <= 2000
 s_init_2_4: - d[0,2,4,0] - d[1,2,4,0] - d[2,2,4,0] + s[2,4,0] = 0
 s_2_4_1: - d[0,2,4,1] - d[1,2,4,1] - d[2,2,4,1] - s[2,4,0] + s[2,4,1] = 0
 s_2_4_2: - d[0,2,4,2] - d[1,2,4,2] - d[2,2,4,2] - s[2,4,1] + s[2,4,2] = 0
 s_2_4_3: - d[0,2,4,3] - d[1,2,4,3] - d[2,2,4,3] - s[2,4,2] + s[2,4,3] = 0
 s_2_4_4: - d[0,2,4,4] - d[1,2,4,4] - d[2,2,4,4] - s[2,4,3] + s[2,4,4] = 0
 s_2_4_5: - d[0,2,4,5] - d[1,2,4,5] - d[2,2,4,5] - s[2,4,4] + s[2,4,5] = 0
 s_2_4_6: - d[0,2,4,6] - d[1,2,4,6] - d[2,2,4,6] - s[2,4,5] + s[2,4,6] = 0
 s_2_4_7: - d[0,2,4,7] - d[1,2,4,7] - d[2,2,4,7] - s[2,4,6] + s[2,4,7] = 0
 s_2_4_8: - d[0,2,4,8] - d[1,2,4,8] - d[2,2,4,8] - s[2,4,7] + s[2,4,8] = 0
 s_2_4_9: - d[0,2,4,9] - d[1,2,4,9] - d[2,2,4,9] - s[2,4,8] + s[2,4,9] = 0
 s_cap_2_4_0: s[2,4,0] <= 2000
 s_cap_2_4_1: s[2,4,1] <= 2000
 s_cap_2_4_2: s[2,4,2] <= 2000
 s_cap_2_4_3: s[2,4,3] <= 2000
 s_cap_2_4_4: s[2,4,4] <= 2000
 s_cap_2_4_5: s[2,4,5] <= 2000
 s_cap_2_4_6: s[2,4,6] <= 2000
 s_cap_2_4_7: s[2,4,7] <= 2000
 s_cap_2_4_8: s[2,4,8] <= 2000
 s_cap_2_4_9: s[2,4,9] <= 2000
 s_init_3_0: - d[0,3,0,0] - d[1,3,0,0] - d[2,3,0,0] + s[3,0,0] = 0
 s_3_0_1: - d[0,3,0,1] - d[1,3,0,1] - d[2,3,0,1] - s[3,0,0] + s[3,0,1] = 0
 s_3_0_2: - d[0,3,0,2] - d[1,3,0,2] - d[2,3,0,2] - s[3,0,1] + s[3,0,2] = 0
 s_3_0_3: - d[0,3,0,3] - d[1,3,0,3] - d[2,3,0,3] - s[3,0,2] + s[3,0,3] = 0
 s_3_0_4: - d[0,3,0,4] - d[1,3,0,4] - d[2,3,0,4] - s[3,0,3] + s[3,0,4] = 0
 s_3_0_5: - d[0,3,0,5] - d[1,3,0,5] - d[2,3,0,5] - s[3,0,4] + s[3,0,5] = 0
 s_3_0_6: - d[0,3,0,6] - d[1,3,0,6] - d[2,3,0,6] - s[3,0,5] + s[3,0,6] = 0
 s_3_0_7: - d[0,3,0,7] - d[1,3,0,7] - d[2,3,0,7] - s[3,0,6] + s[3,0,7] = 0
 s_3_0_8: - d[0,3,0,8] - d[1,3,0,8] - d[2,3,0,8] - s[3,0,7] + s[3,0,8] = 0
 s_3_0_9: - d[0,3,0,9] - d[1,3,0,9] - d[2,3,0,9] - s[3,0,8] + s[3,0,9] = 0
 s_cap_3_0_0: s[3,0,0] <= 2000
 s_cap_3_0_1: s[3,0,1] <= 2000
 s_cap_3_0_2: s[3,0,2] <= 2000
 s_cap_3_0_3: s[3,0,3] <= 2000
 s_cap_3_0_4: s[3,0,4] <= 2000
 s_cap_3_0_5: s[3,0,5] <= 2000
 s_cap_3_0_6: s[3,0,6] <= 2000
 s_cap_3_0_7: s[3,0,7] <= 2000
 s_cap_3_0_8: s[3,0,8] <= 2000
 s_cap_3_0_9: s[3,0,9] <= 2000
 s_init_3_1: - d[0,3,1,0] - d[1,3,1,0] - d[2,3,1,0] + s[3,1,0] = 0
 s_3_1_1: - d[0,3,1,1] - d[1,3,1,1] - d[2,3,1,1] - s[3,1,0] + s[3,1,1] = 0
 s_3_1_2: - d[0,3,1,2] - d[1,3,1,2] - d[2,3,1,2] - s[3,1,1] + s[3,1,2] = 0
 s_3_1_3: - d[0,3,1,3] - d[1,3,1,3] - d[2,3,1,3] - s[3,1,2] + s[3,1,3] = 0
 s_3_1_4: - d[0,3,1,4] - d[1,3,1,4] - d[2,3,1,4] - s[3,1,3] + s[3,1,4] = 0
 s_3_1_5: - d[0,3,1,5] - d[1,3,1,5] - d[2,3,1,5] - s[3,1,4] + s[3,1,5] = 0
 s_3_1_6: - d[0,3,1,6] - d[1,3,1,6] - d[2,3,1,6] - s[3,1,5] + s[3,1,6] = 0
 s_3_1_7: - d[0,3,1,7] - d[1,3,1,7] - d[2,3,1,7] - s[3,1,6] + s[3,1,7] = 0
 s_3_1_8: - d[0,3,1,8] - d[1,3,1,8] - d[2,3,1,8] - s[3,1,7] + s[3,1,8] = 0
 s_3_1_9: - d[0,3,1,9] - d[1,3,1,9] - d[2,3,1,9] - s[3,1,8] + s[3,1,9] = 0
 s_cap_3_1_0: s[3,1,0] <= 2000
 s_cap_3_1_1: s[3,1,1] <= 2000
 s_cap_3_1_2: s[3,1,2] <= 2000
 s_cap_3_1_3: s[3,1,3] <= 2000
 s_cap_3_1_4: s[3,1,4] <= 2000
 s_cap_3_1_5: s[3,1,5] <= 2000
 s_cap_3_1_6: s[3,1,6] <= 2000
 s_cap_3_1_7: s[3,1,7] <= 2000
 s_cap_3_1_8: s[3,1,8] <= 2000
 s_cap_3_1_9: s[3,1,9] <= 2000
 s_init_3_2: - d[0,3,2,0] - d[1,3,2,0] - d[2,3,2,0] + s[3,2,0] = 0
 s_3_2_1: - d[0,3,2,1] - d[1,3,2,1] - d[2,3,2,1] - s[3,2,0] + s[3,2,1] = 0
 s_3_2_2: - d[0,3,2,2] - d[1,3,2,2] - d[2,3,2,2] - s[3,2,1] + s[3,2,2] = 0
 s_3_2_3: - d[0,3,2,3] - d[1,3,2,3] - d[2,3,2,3] - s[3,2,2] + s[3,2,3] = 0
 s_3_2_4: - d[0,3,2,4] - d[1,3,2,4] - d[2,3,2,4] - s[3,2,3] + s[3,2,4] = 0
 s_3_2_5: - d[0,3,2,5] - d[1,3,2,5] - d[2,3,2,5] - s[3,2,4] + s[3,2,5] = 0
 s_3_2_6: - d[0,3,2,6] - d[1,3,2,6] - d[2,3,2,6] - s[3,2,5] + s[3,2,6] = 0
 s_3_2_7: - d[0,3,2,7] - d[1,3,2,7] - d[2,3,2,7] - s[3,2,6] + s[3,2,7] = 0
 s_3_2_8: - d[0,3,2,8] - d[1,3,2,8] - d[2,3,2,8] - s[3,2,7] + s[3,2,8] = 0
 s_3_2_9: - d[0,3,2,9] - d[1,3,2,9] - d[2,3,2,9] - s[3,2,8] + s[3,2,9] = 0
 s_cap_3_2_0: s[3,2,0] <= 2000
 s_cap_3_2_1: s[3,2,1] <= 2000
 s_cap_3_2_2: s[3,2,2] <= 2000
 s_cap_3_2_3: s[3,2,3] <= 2000
 s_cap_3_2_4: s[3,2,4] <= 2000
 s_cap_3_2_5: s[3,2,5] <= 2000
 s_cap_3_2_6: s[3,2,6] <= 2000
 s_cap_3_2_7: s[3,2,7] <= 2000
 s_cap_3_2_8: s[3,2,8] <= 2000
 s_cap_3_2_9: s[3,2,9] <= 2000
 s_init_3_3: - d[0,3,3,0] - d[1,3,3,0] - d[2,3,3,0] + s[3,3,0] = 0
 s_3_3_1: - d[0,3,3,1] - d[1,3,3,1] - d[2,3,3,1] - s[3,3,0] + s[3,3,1] = 0
 s_3_3_2: - d[0,3,3,2] - d[1,3,3,2] - d[2,3,3,2] - s[3,3,1] + s[3,3,2] = 0
 s_3_3_3: - d[0,3,3,3] - d[1,3,3,3] - d[2,3,3,3] - s[3,3,2] + s[3,3,3] = 0
 s_3_3_4: - d[0,3,3,4] - d[1,3,3,4] - d[2,3,3,4] - s[3,3,3] + s[3,3,4] = 0
 s_3_3_5: - d[0,3,3,5] - d[1,3,3,5] - d[2,3,3,5] - s[3,3,4] + s[3,3,5] = 0
 s_3_3_6: - d[0,3,3,6] - d[1,3,3,6] - d[2,3,3,6] - s[3,3,5] + s[3,3,6] = 0
 s_3_3_7: - d[0,3,3,7] - d[1,3,3,7] - d[2,3,3,7] - s[3,3,6] + s[3,3,7] = 0
 s_3_3_8: - d[0,3,3,8] - d[1,3,3,8] - d[2,3,3,8] - s[3,3,7] + s[3,3,8] = 0
 s_3_3_9: - d[0,3,3,9] - d[1,3,3,9] - d[2,3,3,9] - s[3,3,8] + s[3,3,9] = 0
 s_cap_3_3_0: s[3,3,0] <= 2000
 s_cap_3_3_1: s[3,3,1] <= 2000
 s_cap_3_3_2: s[3,3,2] <= 2000
 s_cap_3_3_3: s[3,3,3] <= 2000
 s_cap_3_3_4: s[3,3,4] <= 2000
 s_cap_3_3_5: s[3,3,5] <= 2000
 s_cap_3_3_6: s[3,3,6] <= 2000
 s_cap_3_3_7: s[3,3,7] <= 2000
 s_cap_3_3_8: s[3,3,8] <= 2000
 s_cap_3_3_9: s[3,3,9] <= 2000
 s_init_3_4: - d[0,3,4,0] - d[1,3,4,0] - d[2,3,4,0] + s[3,4,0] = 0
 s_3_4_1: - d[0,3,4,1] - d[1,3,4,1] - d[2,3,4,1] - s[3,4,0] + s[3,4,1] = 0
 s_3_4_2: - d[0,3,4,2] - d[1,3,4,2] - d[2,3,4,2] - s[3,4,1] + s[3,4,2] = 0
 s_3_4_3: - d[0,3,4,3] - d[1,3,4,3] - d[2,3,4,3] - s[3,4,2] + s[3,4,3] = 0
 s_3_4_4: - d[0,3,4,4] - d[1,3,4,4] - d[2,3,4,4] - s[3,4,3] + s[3,4,4] = 0
 s_3_4_5: - d[0,3,4,5] - d[1,3,4,5] - d[2,3,4,5] - s[3,4,4] + s[3,4,5] = 0
 s_3_4_6: - d[0,3,4,6] - d[1,3,4,6] - d[2,3,4,6] - s[3,4,5] + s[3,4,6] = 0
 s_3_4_7: - d[0,3,4,7] - d[1,3,4,7] - d[2,3,4,7] - s[3,4,6] + s[3,4,7] = 0
 s_3_4_8: - d[0,3,4,8] - d[1,3,4,8] - d[2,3,4,8] - s[3,4,7] + s[3,4,8] = 0
 s_3_4_9: - d[0,3,4,9] - d[1,3,4,9] - d[2,3,4,9] - s[3,4,8] + s[3,4,9] = 0
 s_cap_3_4_0: s[3,4,0] <= 2000
 s_cap_3_4_1: s[3,4,1] <= 2000
 s_cap_3_4_2: s[3,4,2] <= 2000
 s_cap_3_4_3: s[3,4,3] <= 2000
 s_cap_3_4_4: s[3,4,4] <= 2000
 s_cap_3_4_5: s[3,4,5] <= 2000
 s_cap_3_4_6: s[3,4,6] <= 2000
 s_cap_3_4_7: s[3,4,7] <= 2000
 s_cap_3_4_8: s[3,4,8] <= 2000
 s_cap_3_4_9: s[3,4,9] <= 2000
 s_init_4_0: - d[0,4,0,0] - d[1,4,0,0] - d[2,4,0,0] + s[4,0,0] = 0
 s_4_0_1: - d[0,4,0,1] - d[1,4,0,1] - d[2,4,0,1] - s[4,0,0] + s[4,0,1] = 0
 s_4_0_2: - d[0,4,0,2] - d[1,4,0,2] - d[2,4,0,2] - s[4,0,1] + s[4,0,2] = 0
 s_4_0_3: - d[0,4,0,3] - d[1,4,0,3] - d[2,4,0,3] - s[4,0,2] + s[4,0,3] = 0
 s_4_0_4: - d[0,4,0,4] - d[1,4,0,4] - d[2,4,0,4] - s[4,0,3] + s[4,0,4] = 0
 s_4_0_5: - d[0,4,0,5] - d[1,4,0,5] - d[2,4,0,5] - s[4,0,4] + s[4,0,5] = 0
 s_4_0_6: - d[0,4,0,6] - d[1,4,0,6] - d[2,4,0,6] - s[4,0,5] + s[4,0,6] = 0
 s_4_0_7: - d[0,4,0,7] - d[1,4,0,7] - d[2,4,0,7] - s[4,0,6] + s[4,0,7] = 0
 s_4_0_8: - d[0,4,0,8] - d[1,4,0,8] - d[2,4,0,8] - s[4,0,7] + s[4,0,8] = 0
 s_4_0_9: - d[0,4,0,9] - d[1,4,0,9] - d[2,4,0,9] - s[4,0,8] + s[4,0,9] = 0
 s_cap_4_0_0: s[4,0,0] <= 2000
 s_cap_4_0_1: s[4,0,1] <= 2000
 s_cap_4_0_2: s[4,0,2] <= 2000
 s_cap_4_0_3: s[4,0,3] <= 2000
 s_cap_4_0_4: s[4,0,4] <= 2000
 s_cap_4_0_5: s[4,0,5] <= 2000
 s_cap_4_0_6: s[4,0,6] <= 2000
 s_cap_4_0_7: s[4,0,7] <= 2000
 s_cap_4_0_8: s[4,0,8] <= 2000
 s_cap_4_0_9: s[4,0,9] <= 2000
 s_init_4_1: - d[0,4,1,0] - d[1,4,1,0] - d[2,4,1,0] + s[4,1,0] = 0
 s_4_1_1: - d[0,4,1,1] - d[1,4,1,1] - d[2,4,1,1] - s[4,1,0] + s[4,1,1] = 0
 s_4_1_2: - d[0,4,1,2] - d[1,4,1,2] - d[2,4,1,2] - s[4,1,1] + s[4,1,2] = 0
 s_4_1_3: - d[0,4,1,3] - d[1,4,1,3] - d[2,4,1,3] - s[4,1,2] + s[4,1,3] = 0
 s_4_1_4: - d[0,4,1,4] - d[1,4,1,4] - d[2,4,1,4] - s[4,1,3] + s[4,1,4] = 0
 s_4_1_5: - d[0,4,1,5] - d[1,4,1,5] - d[2,4,1,5] - s[4,1,4] + s[4,1,5] = 0
 s_4_1_6: - d[0,4,1,6] - d[1,4,1,6] - d[2,4,1,6] - s[4,1,5] + s[4,1,6] = 0
 s_4_1_7: - d[0,4,1,7] - d[1,4,1,7] - d[2,4,1,7] - s[4,1,6] + s[4,1,7] = 0
 s_4_1_8: - d[0,4,1,8] - d[1,4,1,8] - d[2,4,1,8] - s[4,1,7] + s[4,1,8] = 0
 s_4_1_9: - d[0,4,1,9] - d[1,4,1,9] - d[2,4,1,9] - s[4,1,8] + s[4,1,9] = 0
 s_cap_4_1_0: s[4,1,0] <= 2000
 s_cap_4_1_1: s[4,1,1] <= 2000
 s_cap_4_1_2: s[4,1,2] <= 2000
 s_cap_4_1_3: s[4,1,3] <= 2000
 s_cap_4_1_4: s[4,1,4] <= 2000
 s_cap_4_1_5: s[4,1,5] <= 2000
 s_cap_4_1_6: s[4,1,6] <= 2000
 s_cap_4_1_7: s[4,1,7] <= 2000
 s_cap_4_1_8: s[4,1,8] <= 2000
 s_cap_4_1_9: s[4,1,9] <= 2000
 s_init_4_2: - d[0,4,2,0] - d[1,4,2,0] - d[2,4,2,0] + s[4,2,0] = 0
 s_4_2_1: - d[0,4,2,1] - d[1,4,2,1] - d[2,4,2,1] - s[4,2,0] + s[4,2,1] = 0
 s_4_2_2: - d[0,4,2,2] - d[1,4,2,2] - d[2,4,2,2] - s[4,2,1] + s[4,2,2] = 0
 s_4_2_3: - d[0,4,2,3] - d[1,4,2,3] - d[2,4,2,3] - s[4,2,2] + s[4,2,3] = 0
 s_4_2_4: - d[0,4,2,4] - d[1,4,2,4] - d[2,4,2,4] - s[4,2,3] + s[4,2,4] = 0
 s_4_2_5: - d[0,4,2,5] - d[1,4,2,5] - d[2,4,2,5] - s[4,2,4] + s[4,2,5] = 0
 s_4_2_6: - d[0,4,2,6] - d[1,4,2,6] - d[2,4,2,6] - s[4,2,5] + s[4,2,6] = 0
 s_4_2_7: - d[0,4,2,7] - d[1,4,2,7] - d[2,4,2,7] - s[4,2,6] + s[4,2,7] = 0
 s_4_2_8: - d[0,4,2,8] - d[1,4,2,8] - d[2,4,2,8] - s[4,2,7] + s[4,2,8] = 0
 s_4_2_9: - d[0,4,2,9] - d[1,4,2,9] - d[2,4,2,9] - s[4,2,8] + s[4,2,9] = 0
 s_cap_4_2_0: s[4,2,0] <= 2000
 s_cap_4_2_1: s[4,2,1] <= 2000
 s_cap_4_2_2: s[4,2,2] <= 2000
 s_cap_4_2_3: s[4,2,3] <= 2000
 s_cap_4_2_4: s[4,2,4] <= 2000
 s_cap_4_2_5: s[4,2,5] <= 2000
 s_cap_4_2_6: s[4,2,6] <= 2000
 s_cap_4_2_7: s[4,2,7] <= 2000
 s_cap_4_2_8: s[4,2,8] <= 2000
 s_cap_4_2_9: s[4,2,9] <= 2000
 s_init_4_3: - d[0,4,3,0] - d[1,4,3,0] - d[2,4,3,0] + s[4,3,0] = 0
 s_4_3_1: - d[0,4,3,1] - d[1,4,3,1] - d[2,4,3,1] - s[4,3,0] + s[4,3,1] = 0
 s_4_3_2: - d[0,4,3,2] - d[1,4,3,2] - d[2,4,3,2] - s[4,3,1] + s[4,3,2] = 0
 s_4_3_3: - d[0,4,3,3] - d[1,4,3,3] - d[2,4,3,3] - s[4,3,2] + s[4,3,3] = 0
 s_4_3_4: - d[0,4,3,4] - d[1,4,3,4] - d[2,4,3,4] - s[4,3,3] + s[4,3,4] = 0
 s_4_3_5: - d[0,4,3,5] - d[1,4,3,5] - d[2,4,3,5] - s[4,3,4] + s[4,3,5] = 0
 s_4_3_6: - d[0,4,3,6] - d[1,4,3,6] - d[2,4,3,6] - s[4,3,5] + s[4,3,6] = 0
 s_4_3_7: - d[0,4,3,7] - d[1,4,3,7] - d[2,4,3,7] - s[4,3,6] + s[4,3,7] = 0
 s_4_3_8: - d[0,4,3,8] - d[1,4,3,8] - d[2,4,3,8] - s[4,3,7] + s[4,3,8] = 0
 s_4_3_9: - d[0,4,3,9] - d[1,4,3,9] - d[2,4,3,9] - s[4,3,8] + s[4,3,9] = 0
 s_cap_4_3_0: s[4,3,0] <= 2000
 s_cap_4_3_1: s[4,3,1] <= 2000
 s_cap_4_3_2: s[4,3,2] <= 2000
 s_cap_4_3_3: s[4,3,3] <= 2000
 s_cap_4_3_4: s[4,3,4] <= 2000
 s_cap_4_3_5: s[4,3,5] <= 2000
 s_cap_4_3_6: s[4,3,6] <= 2000
 s_cap_4_3_7: s[4,3,7] <= 2000
 s_cap_4_3_8: s[4,3,8] <= 2000
 s_cap_4_3_9: s[4,3,9] <= 2000
 s_init_4_4: - d[0,4,4,0] - d[1,4,4,0] - d[2,4,4,0] + s[4,4,0] = 0
 s_4_4_1: - d[0,4,4,1] - d[1,4,4,1] - d[2,4,4,1] - s[4,4,0] + s[4,4,1] = 0
 s_4_4_2: - d[0,4,4,2] - d[1,4,4,2] - d[2,4,4,2] - s[4,4,1] + s[4,4,2] = 0
 s_4_4_3: - d[0,4,4,3] - d[1,4,4,3] - d[2,4,4,3] - s[4,4,2] + s[4,4,3] = 0
 s_4_4_4: - d[0,4,4,4] - d[1,4,4,4] - d[2,4,4,4] - s[4,4,3] + s[4,4,4] = 0
 s_4_4_5: - d[0,4,4,5] - d[1,4,4,5] - d[2,4,4,5] - s[4,4,4] + s[4,4,5] = 0
 s_4_4_6: - d[0,4,4,6] - d[1,4,4,6] - d[2,4,4,6] - s[4,4,5] + s[4,4,6] = 0
 s_4_4_7: - d[0,4,4,7] - d[1,4,4,7] - d[2,4,4,7] - s[4,4,6] + s[4,4,7] = 0
 s_4_4_8: - d[0,4,4,8] - d[1,4,4,8] - d[2,4,4,8] - s[4,4,7] + s[4,4,8] = 0
 s_4_4_9: - d[0,4,4,9] - d[1,4,4,9] - d[2,4,4,9] - s[4,4,8] + s[4,4,9] = 0
 s_cap_4_4_0: s[4,4,0] <= 2000
 s_cap_4_4_1: s[4,4,1] <= 2000
 s_cap_4_4_2: s[4,4,2] <= 2000
 s_cap_4_4_3: s[4,4,3] <= 2000
 s_cap_4_4_4: s[4,4,4] <= 2000
 s_cap_4_4_5: s[4,4,5] <= 2000
 s_cap_4_4_6: s[4,4,6] <= 2000
 s_cap_4_4_7: s[4,4,7] <= 2000
 s_cap_4_4_8: s[4,4,8] <= 2000
 s_cap_4_4_9: s[4,4,9] <= 2000
 e_persist_0_0_0: - e[0,0,0] + e[0,0,1] >= 0
 e_needs_cumwater_0_0_0: 2000 e[0,0,1] - s[0,0,0] <= 0
 e_only_if_burning_0_0_0: - y[0,0,0] - e[0,0,0] + e[0,0,1] <= 0
 burn_xor_ext_0_0_0: y[0,0,0] + e[0,0,0] <= 1
 e_persist_0_0_1: - e[0,0,1] + e[0,0,2] >= 0
 e_needs_cumwater_0_0_1: 2000 e[0,0,2] - s[0,0,1] <= 0
 e_only_if_burning_0_0_1: - y[0,0,1] - e[0,0,1] + e[0,0,2] <= 0
 burn_xor_ext_0_0_1: y[0,0,1] + e[0,0,1] <= 1
 e_persist_0_0_2: - e[0,0,2] + e[0,0,3] >= 0
 e_needs_cumwater_0_0_2: 2000 e[0,0,3] - s[0,0,2] <= 0
 e_only_if_burning_0_0_2: - y[0,0,2] - e[0,0,2] + e[0,0,3] <= 0
 burn_xor_ext_0_0_2: y[0,0,2] + e[0,0,2] <= 1
 e_persist_0_0_3: - e[0,0,3] + e[0,0,4] >= 0
 e_needs_cumwater_0_0_3: 2000 e[0,0,4] - s[0,0,3] <= 0
 e_only_if_burning_0_0_3: - y[0,0,3] - e[0,0,3] + e[0,0,4] <= 0
 burn_xor_ext_0_0_3: y[0,0,3] + e[0,0,3] <= 1
 e_persist_0_0_4: - e[0,0,4] + e[0,0,5] >= 0
 e_needs_cumwater_0_0_4: 2000 e[0,0,5] - s[0,0,4] <= 0
 e_only_if_burning_0_0_4: - y[0,0,4] - e[0,0,4] + e[0,0,5] <= 0
 burn_xor_ext_0_0_4: y[0,0,4] + e[0,0,4] <= 1
 e_persist_0_0_5: - e[0,0,5] + e[0,0,6] >= 0
 e_needs_cumwater_0_0_5: 2000 e[0,0,6] - s[0,0,5] <= 0
 e_only_if_burning_0_0_5: - y[0,0,5] - e[0,0,5] + e[0,0,6] <= 0
 burn_xor_ext_0_0_5: y[0,0,5] + e[0,0,5] <= 1
 e_persist_0_0_6: - e[0,0,6] + e[0,0,7] >= 0
 e_needs_cumwater_0_0_6: 2000 e[0,0,7] - s[0,0,6] <= 0
 e_only_if_burning_0_0_6: - y[0,0,6] - e[0,0,6] + e[0,0,7] <= 0
 burn_xor_ext_0_0_6: y[0,0,6] + e[0,0,6] <= 1
 e_persist_0_0_7: - e[0,0,7] + e[0,0,8] >= 0
 e_needs_cumwater_0_0_7: 2000 e[0,0,8] - s[0,0,7] <= 0
 e_only_if_burning_0_0_7: - y[0,0,7] - e[0,0,7] + e[0,0,8] <= 0
 burn_xor_ext_0_0_7: y[0,0,7] + e[0,0,7] <= 1
 e_persist_0_0_8: - e[0,0,8] + e[0,0,9] >= 0
 e_needs_cumwater_0_0_8: 2000 e[0,0,9] - s[0,0,8] <= 0
 e_only_if_burning_0_0_8: - y[0,0,8] - e[0,0,8] + e[0,0,9] <= 0
 burn_xor_ext_0_0_8: y[0,0,8] + e[0,0,8] <= 1
 e_persist_0_1_0: - e[0,1,0] + e[0,1,1] >= 0
 e_needs_cumwater_0_1_0: 2000 e[0,1,1] - s[0,1,0] <= 0
 e_only_if_burning_0_1_0: - y[0,1,0] - e[0,1,0] + e[0,1,1] <= 0
 burn_xor_ext_0_1_0: y[0,1,0] + e[0,1,0] <= 1
 e_persist_0_1_1: - e[0,1,1] + e[0,1,2] >= 0
 e_needs_cumwater_0_1_1: 2000 e[0,1,2] - s[0,1,1] <= 0
 e_only_if_burning_0_1_1: - y[0,1,1] - e[0,1,1] + e[0,1,2] <= 0
 burn_xor_ext_0_1_1: y[0,1,1] + e[0,1,1] <= 1
 e_persist_0_1_2: - e[0,1,2] + e[0,1,3] >= 0
 e_needs_cumwater_0_1_2: 2000 e[0,1,3] - s[0,1,2] <= 0
 e_only_if_burning_0_1_2: - y[0,1,2] - e[0,1,2] + e[0,1,3] <= 0
 burn_xor_ext_0_1_2: y[0,1,2] + e[0,1,2] <= 1
 e_persist_0_1_3: - e[0,1,3] + e[0,1,4] >= 0
 e_needs_cumwater_0_1_3: 2000 e[0,1,4] - s[0,1,3] <= 0
 e_only_if_burning_0_1_3: - y[0,1,3] - e[0,1,3] + e[0,1,4] <= 0
 burn_xor_ext_0_1_3: y[0,1,3] + e[0,1,3] <= 1
 e_persist_0_1_4: - e[0,1,4] + e[0,1,5] >= 0
 e_needs_cumwater_0_1_4: 2000 e[0,1,5] - s[0,1,4] <= 0
 e_only_if_burning_0_1_4: - y[0,1,4] - e[0,1,4] + e[0,1,5] <= 0
 burn_xor_ext_0_1_4: y[0,1,4] + e[0,1,4] <= 1
 e_persist_0_1_5: - e[0,1,5] + e[0,1,6] >= 0
 e_needs_cumwater_0_1_5: 2000 e[0,1,6] - s[0,1,5] <= 0
 e_only_if_burning_0_1_5: - y[0,1,5] - e[0,1,5] + e[0,1,6] <= 0
 burn_xor_ext_0_1_5: y[0,1,5] + e[0,1,5] <= 1
 e_persist_0_1_6: - e[0,1,6] + e[0,1,7] >= 0
 e_needs_cumwater_0_1_6: 2000 e[0,1,7] - s[0,1,6] <= 0
 e_only_if_burning_0_1_6: - y[0,1,6] - e[0,1,6] + e[0,1,7] <= 0
 burn_xor_ext_0_1_6: y[0,1,6] + e[0,1,6] <= 1
 e_persist_0_1_7: - e[0,1,7] + e[0,1,8] >= 0
 e_needs_cumwater_0_1_7: 2000 e[0,1,8] - s[0,1,7] <= 0
 e_only_if_burning_0_1_7: - y[0,1,7] - e[0,1,7] + e[0,1,8] <= 0
 burn_xor_ext_0_1_7: y[0,1,7] + e[0,1,7] <= 1
 e_persist_0_1_8: - e[0,1,8] + e[0,1,9] >= 0
 e_needs_cumwater_0_1_8: 2000 e[0,1,9] - s[0,1,8] <= 0
 e_only_if_burning_0_1_8: - y[0,1,8] - e[0,1,8] + e[0,1,9] <= 0
 burn_xor_ext_0_1_8: y[0,1,8] + e[0,1,8] <= 1
 e_persist_0_2_0: - e[0,2,0] + e[0,2,1] >= 0
 e_needs_cumwater_0_2_0: 2000 e[0,2,1] - s[0,2,0] <= 0
 e_only_if_burning_0_2_0: - y[0,2,0] - e[0,2,0] + e[0,2,1] <= 0
 burn_xor_ext_0_2_0: y[0,2,0] + e[0,2,0] <= 1
 e_persist_0_2_1: - e[0,2,1] + e[0,2,2] >= 0
 e_needs_cumwater_0_2_1: 2000 e[0,2,2] - s[0,2,1] <= 0
 e_only_if_burning_0_2_1: - y[0,2,1] - e[0,2,1] + e[0,2,2] <= 0
 burn_xor_ext_0_2_1: y[0,2,1] + e[0,2,1] <= 1
 e_persist_0_2_2: - e[0,2,2] + e[0,2,3] >= 0
 e_needs_cumwater_0_2_2: 2000 e[0,2,3] - s[0,2,2] <= 0
 e_only_if_burning_0_2_2: - y[0,2,2] - e[0,2,2] + e[0,2,3] <= 0
 burn_xor_ext_0_2_2: y[0,2,2] + e[0,2,2] <= 1
 e_persist_0_2_3: - e[0,2,3] + e[0,2,4] >= 0
 e_needs_cumwater_0_2_3: 2000 e[0,2,4] - s[0,2,3] <= 0
 e_only_if_burning_0_2_3: - y[0,2,3] - e[0,2,3] + e[0,2,4] <= 0
 burn_xor_ext_0_2_3: y[0,2,3] + e[0,2,3] <= 1
 e_persist_0_2_4: - e[0,2,4] + e[0,2,5] >= 0
 e_needs_cumwater_0_2_4: 2000 e[0,2,5] - s[0,2,4] <= 0
 e_only_if_burning_0_2_4: - y[0,2,4] - e[0,2,4] + e[0,2,5] <= 0
 burn_xor_ext_0_2_4: y[0,2,4] + e[0,2,4] <= 1
 e_persist_0_2_5: - e[0,2,5] + e[0,2,6] >= 0
 e_needs_cumwater_0_2_5: 2000 e[0,2,6] - s[0,2,5] <= 0
 e_only_if_burning_0_2_5: - y[0,2,5] - e[0,2,5] + e[0,2,6] <= 0
 burn_xor_ext_0_2_5: y[0,2,5] + e[0,2,5] <= 1
 e_persist_0_2_6: - e[0,2,6] + e[0,2,7] >= 0
 e_needs_cumwater_0_2_6: 2000 e[0,2,7] - s[0,2,6] <= 0
 e_only_if_burning_0_2_6: - y[0,2,6] - e[0,2,6] + e[0,2,7] <= 0
 burn_xor_ext_0_2_6: y[0,2,6] + e[0,2,6] <= 1
 e_persist_0_2_7: - e[0,2,7] + e[0,2,8] >= 0
 e_needs_cumwater_0_2_7: 2000 e[0,2,8] - s[0,2,7] <= 0
 e_only_if_burning_0_2_7: - y[0,2,7] - e[0,2,7] + e[0,2,8] <= 0
 burn_xor_ext_0_2_7: y[0,2,7] + e[0,2,7] <= 1
 e_persist_0_2_8: - e[0,2,8] + e[0,2,9] >= 0
 e_needs_cumwater_0_2_8: 2000 e[0,2,9] - s[0,2,8] <= 0
 e_only_if_burning_0_2_8: - y[0,2,8] - e[0,2,8] + e[0,2,9] <= 0
 burn_xor_ext_0_2_8: y[0,2,8] + e[0,2,8] <= 1
 e_persist_0_3_0: - e[0,3,0] + e[0,3,1] >= 0
 e_needs_cumwater_0_3_0: 2000 e[0,3,1] - s[0,3,0] <= 0
 e_only_if_burning_0_3_0: - y[0,3,0] - e[0,3,0] + e[0,3,1] <= 0
 burn_xor_ext_0_3_0: y[0,3,0] + e[0,3,0] <= 1
 e_persist_0_3_1: - e[0,3,1] + e[0,3,2] >= 0
 e_needs_cumwater_0_3_1: 2000 e[0,3,2] - s[0,3,1] <= 0
 e_only_if_burning_0_3_1: - y[0,3,1] - e[0,3,1] + e[0,3,2] <= 0
 burn_xor_ext_0_3_1: y[0,3,1] + e[0,3,1] <= 1
 e_persist_0_3_2: - e[0,3,2] + e[0,3,3] >= 0
 e_needs_cumwater_0_3_2: 2000 e[0,3,3] - s[0,3,2] <= 0
 e_only_if_burning_0_3_2: - y[0,3,2] - e[0,3,2] + e[0,3,3] <= 0
 burn_xor_ext_0_3_2: y[0,3,2] + e[0,3,2] <= 1
 e_persist_0_3_3: - e[0,3,3] + e[0,3,4] >= 0
 e_needs_cumwater_0_3_3: 2000 e[0,3,4] - s[0,3,3] <= 0
 e_only_if_burning_0_3_3: - y[0,3,3] - e[0,3,3] + e[0,3,4] <= 0
 burn_xor_ext_0_3_3: y[0,3,3] + e[0,3,3] <= 1
 e_persist_0_3_4: - e[0,3,4] + e[0,3,5] >= 0
 e_needs_cumwater_0_3_4: 2000 e[0,3,5] - s[0,3,4] <= 0
 e_only_if_burning_0_3_4: - y[0,3,4] - e[0,3,4] + e[0,3,5] <= 0
 burn_xor_ext_0_3_4: y[0,3,4] + e[0,3,4] <= 1
 e_persist_0_3_5: - e[0,3,5] + e[0,3,6] >= 0
 e_needs_cumwater_0_3_5: 2000 e[0,3,6] - s[0,3,5] <= 0
 e_only_if_burning_0_3_5: - y[0,3,5] - e[0,3,5] + e[0,3,6] <= 0
 burn_xor_ext_0_3_5: y[0,3,5] + e[0,3,5] <= 1
 e_persist_0_3_6: - e[0,3,6] + e[0,3,7] >= 0
 e_needs_cumwater_0_3_6: 2000 e[0,3,7] - s[0,3,6] <= 0
 e_only_if_burning_0_3_6: - y[0,3,6] - e[0,3,6] + e[0,3,7] <= 0
 burn_xor_ext_0_3_6: y[0,3,6] + e[0,3,6] <= 1
 e_persist_0_3_7: - e[0,3,7] + e[0,3,8] >= 0
 e_needs_cumwater_0_3_7: 2000 e[0,3,8] - s[0,3,7] <= 0
 e_only_if_burning_0_3_7: - y[0,3,7] - e[0,3,7] + e[0,3,8] <= 0
 burn_xor_ext_0_3_7: y[0,3,7] + e[0,3,7] <= 1
 e_persist_0_3_8: - e[0,3,8] + e[0,3,9] >= 0
 e_needs_cumwater_0_3_8: 2000 e[0,3,9] - s[0,3,8] <= 0
 e_only_if_burning_0_3_8: - y[0,3,8] - e[0,3,8] + e[0,3,9] <= 0
 burn_xor_ext_0_3_8: y[0,3,8] + e[0,3,8] <= 1
 e_persist_0_4_0: - e[0,4,0] + e[0,4,1] >= 0
 e_needs_cumwater_0_4_0: 2000 e[0,4,1] - s[0,4,0] <= 0
 e_only_if_burning_0_4_0: - y[0,4,0] - e[0,4,0] + e[0,4,1] <= 0
 burn_xor_ext_0_4_0: y[0,4,0] + e[0,4,0] <= 1
 e_persist_0_4_1: - e[0,4,1] + e[0,4,2] >= 0
 e_needs_cumwater_0_4_1: 2000 e[0,4,2] - s[0,4,1] <= 0
 e_only_if_burning_0_4_1: - y[0,4,1] - e[0,4,1] + e[0,4,2] <= 0
 burn_xor_ext_0_4_1: y[0,4,1] + e[0,4,1] <= 1
 e_persist_0_4_2: - e[0,4,2] + e[0,4,3] >= 0
 e_needs_cumwater_0_4_2: 2000 e[0,4,3] - s[0,4,2] <= 0
 e_only_if_burning_0_4_2: - y[0,4,2] - e[0,4,2] + e[0,4,3] <= 0
 burn_xor_ext_0_4_2: y[0,4,2] + e[0,4,2] <= 1
 e_persist_0_4_3: - e[0,4,3] + e[0,4,4] >= 0
 e_needs_cumwater_0_4_3: 2000 e[0,4,4] - s[0,4,3] <= 0
 e_only_if_burning_0_4_3: - y[0,4,3] - e[0,4,3] + e[0,4,4] <= 0
 burn_xor_ext_0_4_3: y[0,4,3] + e[0,4,3] <= 1
 e_persist_0_4_4: - e[0,4,4] + e[0,4,5] >= 0
 e_needs_cumwater_0_4_4: 2000 e[0,4,5] - s[0,4,4] <= 0
 e_only_if_burning_0_4_4: - y[0,4,4] - e[0,4,4] + e[0,4,5] <= 0
 burn_xor_ext_0_4_4: y[0,4,4] + e[0,4,4] <= 1
 e_persist_0_4_5: - e[0,4,5] + e[0,4,6] >= 0
 e_needs_cumwater_0_4_5: 2000 e[0,4,6] - s[0,4,5] <= 0
 e_only_if_burning_0_4_5: - y[0,4,5] - e[0,4,5] + e[0,4,6] <= 0
 burn_xor_ext_0_4_5: y[0,4,5] + e[0,4,5] <= 1
 e_persist_0_4_6: - e[0,4,6] + e[0,4,7] >= 0
 e_needs_cumwater_0_4_6: 2000 e[0,4,7] - s[0,4,6] <= 0
 e_only_if_burning_0_4_6: - y[0,4,6] - e[0,4,6] + e[0,4,7] <= 0
 burn_xor_ext_0_4_6: y[0,4,6] + e[0,4,6] <= 1
 e_persist_0_4_7: - e[0,4,7] + e[0,4,8] >= 0
 e_needs_cumwater_0_4_7: 2000 e[0,4,8] - s[0,4,7] <= 0
 e_only_if_burning_0_4_7: - y[0,4,7] - e[0,4,7] + e[0,4,8] <= 0
 burn_xor_ext_0_4_7: y[0,4,7] + e[0,4,7] <= 1
 e_persist_0_4_8: - e[0,4,8] + e[0,4,9] >= 0
 e_needs_cumwater_0_4_8: 2000 e[0,4,9] - s[0,4,8] <= 0
 e_only_if_burning_0_4_8: - y[0,4,8] - e[0,4,8] + e[0,4,9] <= 0
 burn_xor_ext_0_4_8: y[0,4,8] + e[0,4,8] <= 1
 e_persist_1_0_0: - e[1,0,0] + e[1,0,1] >= 0
 e_needs_cumwater_1_0_0: 2000 e[1,0,1] - s[1,0,0] <= 0
 e_only_if_burning_1_0_0: - y[1,0,0] - e[1,0,0] + e[1,0,1] <= 0
 burn_xor_ext_1_0_0: y[1,0,0] + e[1,0,0] <= 1
 e_persist_1_0_1: - e[1,0,1] + e[1,0,2] >= 0
 e_needs_cumwater_1_0_1: 2000 e[1,0,2] - s[1,0,1] <= 0
 e_only_if_burning_1_0_1: - y[1,0,1] - e[1,0,1] + e[1,0,2] <= 0
 burn_xor_ext_1_0_1: y[1,0,1] + e[1,0,1] <= 1
 e_persist_1_0_2: - e[1,0,2] + e[1,0,3] >= 0
 e_needs_cumwater_1_0_2: 2000 e[1,0,3] - s[1,0,2] <= 0
 e_only_if_burning_1_0_2: - y[1,0,2] - e[1,0,2] + e[1,0,3] <= 0
 burn_xor_ext_1_0_2: y[1,0,2] + e[1,0,2] <= 1
 e_persist_1_0_3: - e[1,0,3] + e[1,0,4] >= 0
 e_needs_cumwater_1_0_3: 2000 e[1,0,4] - s[1,0,3] <= 0
 e_only_if_burning_1_0_3: - y[1,0,3] - e[1,0,3] + e[1,0,4] <= 0
 burn_xor_ext_1_0_3: y[1,0,3] + e[1,0,3] <= 1
 e_persist_1_0_4: - e[1,0,4] + e[1,0,5] >= 0
 e_needs_cumwater_1_0_4: 2000 e[1,0,5] - s[1,0,4] <= 0
 e_only_if_burning_1_0_4: - y[1,0,4] - e[1,0,4] + e[1,0,5] <= 0
 burn_xor_ext_1_0_4: y[1,0,4] + e[1,0,4] <= 1
 e_persist_1_0_5: - e[1,0,5] + e[1,0,6] >= 0
 e_needs_cumwater_1_0_5: 2000 e[1,0,6] - s[1,0,5] <= 0
 e_only_if_burning_1_0_5: - y[1,0,5] - e[1,0,5] + e[1,0,6] <= 0
 burn_xor_ext_1_0_5: y[1,0,5] + e[1,0,5] <= 1
 e_persist_1_0_6: - e[1,0,6] + e[1,0,7] >= 0
 e_needs_cumwater_1_0_6: 2000 e[1,0,7] - s[1,0,6] <= 0
 e_only_if_burning_1_0_6: - y[1,0,6] - e[1,0,6] + e[1,0,7] <= 0
 burn_xor_ext_1_0_6: y[1,0,6] + e[1,0,6] <= 1
 e_persist_1_0_7: - e[1,0,7] + e[1,0,8] >= 0
 e_needs_cumwater_1_0_7: 2000 e[1,0,8] - s[1,0,7] <= 0
 e_only_if_burning_1_0_7: - y[1,0,7] - e[1,0,7] + e[1,0,8] <= 0
 burn_xor_ext_1_0_7: y[1,0,7] + e[1,0,7] <= 1
 e_persist_1_0_8: - e[1,0,8] + e[1,0,9] >= 0
 e_needs_cumwater_1_0_8: 2000 e[1,0,9] - s[1,0,8] <= 0
 e_only_if_burning_1_0_8: - y[1,0,8] - e[1,0,8] + e[1,0,9] <= 0
 burn_xor_ext_1_0_8: y[1,0,8] + e[1,0,8] <= 1
 e_persist_1_1_0: - e[1,1,0] + e[1,1,1] >= 0
 e_needs_cumwater_1_1_0: 2000 e[1,1,1] - s[1,1,0] <= 0
 e_only_if_burning_1_1_0: - y[1,1,0] - e[1,1,0] + e[1,1,1] <= 0
 burn_xor_ext_1_1_0: y[1,1,0] + e[1,1,0] <= 1
 e_persist_1_1_1: - e[1,1,1] + e[1,1,2] >= 0
 e_needs_cumwater_1_1_1: 2000 e[1,1,2] - s[1,1,1] <= 0
 e_only_if_burning_1_1_1: - y[1,1,1] - e[1,1,1] + e[1,1,2] <= 0
 burn_xor_ext_1_1_1: y[1,1,1] + e[1,1,1] <= 1
 e_persist_1_1_2: - e[1,1,2] + e[1,1,3] >= 0
 e_needs_cumwater_1_1_2: 2000 e[1,1,3] - s[1,1,2] <= 0
 e_only_if_burning_1_1_2: - y[1,1,2] - e[1,1,2] + e[1,1,3] <= 0
 burn_xor_ext_1_1_2: y[1,1,2] + e[1,1,2] <= 1
 e_persist_1_1_3: - e[1,1,3] + e[1,1,4] >= 0
 e_needs_cumwater_1_1_3: 2000 e[1,1,4] - s[1,1,3] <= 0
 e_only_if_burning_1_1_3: - y[1,1,3] - e[1,1,3] + e[1,1,4] <= 0
 burn_xor_ext_1_1_3: y[1,1,3] + e[1,1,3] <= 1
 e_persist_1_1_4: - e[1,1,4] + e[1,1,5] >= 0
 e_needs_cumwater_1_1_4: 2000 e[1,1,5] - s[1,1,4] <= 0
 e_only_if_burning_1_1_4: - y[1,1,4] - e[1,1,4] + e[1,1,5] <= 0
 burn_xor_ext_1_1_4: y[1,1,4] + e[1,1,4] <= 1
 e_persist_1_1_5: - e[1,1,5] + e[1,1,6] >= 0
 e_needs_cumwater_1_1_5: 2000 e[1,1,6] - s[1,1,5] <= 0
 e_only_if_burning_1_1_5: - y[1,1,5] - e[1,1,5] + e[1,1,6] <= 0
 burn_xor_ext_1_1_5: y[1,1,5] + e[1,1,5] <= 1
 e_persist_1_1_6: - e[1,1,6] + e[1,1,7] >= 0
 e_needs_cumwater_1_1_6: 2000 e[1,1,7] - s[1,1,6] <= 0
 e_only_if_burning_1_1_6: - y[1,1,6] - e[1,1,6] + e[1,1,7] <= 0
 burn_xor_ext_1_1_6: y[1,1,6] + e[1,1,6] <= 1
 e_persist_1_1_7: - e[1,1,7] + e[1,1,8] >= 0
 e_needs_cumwater_1_1_7: 2000 e[1,1,8] - s[1,1,7] <= 0
 e_only_if_burning_1_1_7: - y[1,1,7] - e[1,1,7] + e[1,1,8] <= 0
 burn_xor_ext_1_1_7: y[1,1,7] + e[1,1,7] <= 1
 e_persist_1_1_8: - e[1,1,8] + e[1,1,9] >= 0
 e_needs_cumwater_1_1_8: 2000 e[1,1,9] - s[1,1,8] <= 0
 e_only_if_burning_1_1_8: - y[1,1,8] - e[1,1,8] + e[1,1,9] <= 0
 burn_xor_ext_1_1_8: y[1,1,8] + e[1,1,8] <= 1
 e_persist_1_2_0: - e[1,2,0] + e[1,2,1] >= 0
 e_needs_cumwater_1_2_0: 2000 e[1,2,1] - s[1,2,0] <= 0
 e_only_if_burning_1_2_0: - y[1,2,0] - e[1,2,0] + e[1,2,1] <= 0
 burn_xor_ext_1_2_0: y[1,2,0] + e[1,2,0] <= 1
 e_persist_1_2_1: - e[1,2,1] + e[1,2,2] >= 0
 e_needs_cumwater_1_2_1: 2000 e[1,2,2] - s[1,2,1] <= 0
 e_only_if_burning_1_2_1: - y[1,2,1] - e[1,2,1] + e[1,2,2] <= 0
 burn_xor_ext_1_2_1: y[1,2,1] + e[1,2,1] <= 1
 e_persist_1_2_2: - e[1,2,2] + e[1,2,3] >= 0
 e_needs_cumwater_1_2_2: 2000 e[1,2,3] - s[1,2,2] <= 0
 e_only_if_burning_1_2_2: - y[1,2,2] - e[1,2,2] + e[1,2,3] <= 0
 burn_xor_ext_1_2_2: y[1,2,2] + e[1,2,2] <= 1
 e_persist_1_2_3: - e[1,2,3] + e[1,2,4] >= 0
 e_needs_cumwater_1_2_3: 2000 e[1,2,4] - s[1,2,3] <= 0
 e_only_if_burning_1_2_3: - y[1,2,3] - e[1,2,3] + e[1,2,4] <= 0
 burn_xor_ext_1_2_3: y[1,2,3] + e[1,2,3] <= 1
 e_persist_1_2_4: - e[1,2,4] + e[1,2,5] >= 0
 e_needs_cumwater_1_2_4: 2000 e[1,2,5] - s[1,2,4] <= 0
 e_only_if_burning_1_2_4: - y[1,2,4] - e[1,2,4] + e[1,2,5] <= 0
 burn_xor_ext_1_2_4: y[1,2,4] + e[1,2,4] <= 1
 e_persist_1_2_5: - e[1,2,5] + e[1,2,6] >= 0
 e_needs_cumwater_1_2_5: 2000 e[1,2,6] - s[1,2,5] <= 0
 e_only_if_burning_1_2_5: - y[1,2,5] - e[1,2,5] + e[1,2,6] <= 0
 burn_xor_ext_1_2_5: y[1,2,5] + e[1,2,5] <= 1
 e_persist_1_2_6: - e[1,2,6] + e[1,2,7] >= 0
 e_needs_cumwater_1_2_6: 2000 e[1,2,7] - s[1,2,6] <= 0
 e_only_if_burning_1_2_6: - y[1,2,6] - e[1,2,6] + e[1,2,7] <= 0
 burn_xor_ext_1_2_6: y[1,2,6] + e[1,2,6] <= 1
 e_persist_1_2_7: - e[1,2,7] + e[1,2,8] >= 0
 e_needs_cumwater_1_2_7: 2000 e[1,2,8] - s[1,2,7] <= 0
 e_only_if_burning_1_2_7: - y[1,2,7] - e[1,2,7] + e[1,2,8] <= 0
 burn_xor_ext_1_2_7: y[1,2,7] + e[1,2,7] <= 1
 e_persist_1_2_8: - e[1,2,8] + e[1,2,9] >= 0
 e_needs_cumwater_1_2_8: 2000 e[1,2,9] - s[1,2,8] <= 0
 e_only_if_burning_1_2_8: - y[1,2,8] - e[1,2,8] + e[1,2,9] <= 0
 burn_xor_ext_1_2_8: y[1,2,8] + e[1,2,8] <= 1
 e_persist_1_3_0: - e[1,3,0] + e[1,3,1] >= 0
 e_needs_cumwater_1_3_0: 2000 e[1,3,1] - s[1,3,0] <= 0
 e_only_if_burning_1_3_0: - y[1,3,0] - e[1,3,0] + e[1,3,1] <= 0
 burn_xor_ext_1_3_0: y[1,3,0] + e[1,3,0] <= 1
 e_persist_1_3_1: - e[1,3,1] + e[1,3,2] >= 0
 e_needs_cumwater_1_3_1: 2000 e[1,3,2] - s[1,3,1] <= 0
 e_only_if_burning_1_3_1: - y[1,3,1] - e[1,3,1] + e[1,3,2] <= 0
 burn_xor_ext_1_3_1: y[1,3,1] + e[1,3,1] <= 1
 e_persist_1_3_2: - e[1,3,2] + e[1,3,3] >= 0
 e_needs_cumwater_1_3_2: 2000 e[1,3,3] - s[1,3,2] <= 0
 e_only_if_burning_1_3_2: - y[1,3,2] - e[1,3,2] + e[1,3,3] <= 0
 burn_xor_ext_1_3_2: y[1,3,2] + e[1,3,2] <= 1
 e_persist_1_3_3: - e[1,3,3] + e[1,3,4] >= 0
 e_needs_cumwater_1_3_3: 2000 e[1,3,4] - s[1,3,3] <= 0
 e_only_if_burning_1_3_3: - y[1,3,3] - e[1,3,3] + e[1,3,4] <= 0
 burn_xor_ext_1_3_3: y[1,3,3] + e[1,3,3] <= 1
 e_persist_1_3_4: - e[1,3,4] + e[1,3,5] >= 0
 e_needs_cumwater_1_3_4: 2000 e[1,3,5] - s[1,3,4] <= 0
 e_only_if_burning_1_3_4: - y[1,3,4] - e[1,3,4] + e[1,3,5] <= 0
 burn_xor_ext_1_3_4: y[1,3,4] + e[1,3,4] <= 1
 e_persist_1_3_5: - e[1,3,5] + e[1,3,6] >= 0
 e_needs_cumwater_1_3_5: 2000 e[1,3,6] - s[1,3,5] <= 0
 e_only_if_burning_1_3_5: - y[1,3,5] - e[1,3,5] + e[1,3,6] <= 0
 burn_xor_ext_1_3_5: y[1,3,5] + e[1,3,5] <= 1
 e_persist_1_3_6: - e[1,3,6] + e[1,3,7] >= 0
 e_needs_cumwater_1_3_6: 2000 e[1,3,7] - s[1,3,6] <= 0
 e_only_if_burning_1_3_6: - y[1,3,6] - e[1,3,6] + e[1,3,7] <= 0
 burn_xor_ext_1_3_6: y[1,3,6] + e[1,3,6] <= 1
 e_persist_1_3_7: - e[1,3,7] + e[1,3,8] >= 0
 e_needs_cumwater_1_3_7: 2000 e[1,3,8] - s[1,3,7] <= 0
 e_only_if_burning_1_3_7: - y[1,3,7] - e[1,3,7] + e[1,3,8] <= 0
 burn_xor_ext_1_3_7: y[1,3,7] + e[1,3,7] <= 1
 e_persist_1_3_8: - e[1,3,8] + e[1,3,9] >= 0
 e_needs_cumwater_1_3_8: 2000 e[1,3,9] - s[1,3,8] <= 0
 e_only_if_burning_1_3_8: - y[1,3,8] - e[1,3,8] + e[1,3,9] <= 0
 burn_xor_ext_1_3_8: y[1,3,8] + e[1,3,8] <= 1
 e_persist_1_4_0: - e[1,4,0] + e[1,4,1] >= 0
 e_needs_cumwater_1_4_0: 2000 e[1,4,1] - s[1,4,0] <= 0
 e_only_if_burning_1_4_0: - y[1,4,0] - e[1,4,0] + e[1,4,1] <= 0
 burn_xor_ext_1_4_0: y[1,4,0] + e[1,4,0] <= 1
 e_persist_1_4_1: - e[1,4,1] + e[1,4,2] >= 0
 e_needs_cumwater_1_4_1: 2000 e[1,4,2] - s[1,4,1] <= 0
 e_only_if_burning_1_4_1: - y[1,4,1] - e[1,4,1] + e[1,4,2] <= 0
 burn_xor_ext_1_4_1: y[1,4,1] + e[1,4,1] <= 1
 e_persist_1_4_2: - e[1,4,2] + e[1,4,3] >= 0
 e_needs_cumwater_1_4_2: 2000 e[1,4,3] - s[1,4,2] <= 0
 e_only_if_burning_1_4_2: - y[1,4,2] - e[1,4,2] + e[1,4,3] <= 0
 burn_xor_ext_1_4_2: y[1,4,2] + e[1,4,2] <= 1
 e_persist_1_4_3: - e[1,4,3] + e[1,4,4] >= 0
 e_needs_cumwater_1_4_3: 2000 e[1,4,4] - s[1,4,3] <= 0
 e_only_if_burning_1_4_3: - y[1,4,3] - e[1,4,3] + e[1,4,4] <= 0
 burn_xor_ext_1_4_3: y[1,4,3] + e[1,4,3] <= 1
 e_persist_1_4_4: - e[1,4,4] + e[1,4,5] >= 0
 e_needs_cumwater_1_4_4: 2000 e[1,4,5] - s[1,4,4] <= 0
 e_only_if_burning_1_4_4: - y[1,4,4] - e[1,4,4] + e[1,4,5] <= 0
 burn_xor_ext_1_4_4: y[1,4,4] + e[1,4,4] <= 1
 e_persist_1_4_5: - e[1,4,5] + e[1,4,6] >= 0
 e_needs_cumwater_1_4_5: 2000 e[1,4,6] - s[1,4,5] <= 0
 e_only_if_burning_1_4_5: - y[1,4,5] - e[1,4,5] + e[1,4,6] <= 0
 burn_xor_ext_1_4_5: y[1,4,5] + e[1,4,5] <= 1
 e_persist_1_4_6: - e[1,4,6] + e[1,4,7] >= 0
 e_needs_cumwater_1_4_6: 2000 e[1,4,7] - s[1,4,6] <= 0
 e_only_if_burning_1_4_6: - y[1,4,6] - e[1,4,6] + e[1,4,7] <= 0
 burn_xor_ext_1_4_6: y[1,4,6] + e[1,4,6] <= 1
 e_persist_1_4_7: - e[1,4,7] + e[1,4,8] >= 0
 e_needs_cumwater_1_4_7: 2000 e[1,4,8] - s[1,4,7] <= 0
 e_only_if_burning_1_4_7: - y[1,4,7] - e[1,4,7] + e[1,4,8] <= 0
 burn_xor_ext_1_4_7: y[1,4,7] + e[1,4,7] <= 1
 e_persist_1_4_8: - e[1,4,8] + e[1,4,9] >= 0
 e_needs_cumwater_1_4_8: 2000 e[1,4,9] - s[1,4,8] <= 0
 e_only_if_burning_1_4_8: - y[1,4,8] - e[1,4,8] + e[1,4,9] <= 0
 burn_xor_ext_1_4_8: y[1,4,8] + e[1,4,8] <= 1
 e_persist_2_0_0: - e[2,0,0] + e[2,0,1] >= 0
 e_needs_cumwater_2_0_0: 2000 e[2,0,1] - s[2,0,0] <= 0
 e_only_if_burning_2_0_0: - y[2,0,0] - e[2,0,0] + e[2,0,1] <= 0
 burn_xor_ext_2_0_0: y[2,0,0] + e[2,0,0] <= 1
 e_persist_2_0_1: - e[2,0,1] + e[2,0,2] >= 0
 e_needs_cumwater_2_0_1: 2000 e[2,0,2] - s[2,0,1] <= 0
 e_only_if_burning_2_0_1: - y[2,0,1] - e[2,0,1] + e[2,0,2] <= 0
 burn_xor_ext_2_0_1: y[2,0,1] + e[2,0,1] <= 1
 e_persist_2_0_2: - e[2,0,2] + e[2,0,3] >= 0
 e_needs_cumwater_2_0_2: 2000 e[2,0,3] - s[2,0,2] <= 0
 e_only_if_burning_2_0_2: - y[2,0,2] - e[2,0,2] + e[2,0,3] <= 0
 burn_xor_ext_2_0_2: y[2,0,2] + e[2,0,2] <= 1
 e_persist_2_0_3: - e[2,0,3] + e[2,0,4] >= 0
 e_needs_cumwater_2_0_3: 2000 e[2,0,4] - s[2,0,3] <= 0
 e_only_if_burning_2_0_3: - y[2,0,3] - e[2,0,3] + e[2,0,4] <= 0
 burn_xor_ext_2_0_3: y[2,0,3] + e[2,0,3] <= 1
 e_persist_2_0_4: - e[2,0,4] + e[2,0,5] >= 0
 e_needs_cumwater_2_0_4: 2000 e[2,0,5] - s[2,0,4] <= 0
 e_only_if_burning_2_0_4: - y[2,0,4] - e[2,0,4] + e[2,0,5] <= 0
 burn_xor_ext_2_0_4: y[2,0,4] + e[2,0,4] <= 1
 e_persist_2_0_5: - e[2,0,5] + e[2,0,6] >= 0
 e_needs_cumwater_2_0_5: 2000 e[2,0,6] - s[2,0,5] <= 0
 e_only_if_burning_2_0_5: - y[2,0,5] - e[2,0,5] + e[2,0,6] <= 0
 burn_xor_ext_2_0_5: y[2,0,5] + e[2,0,5] <= 1
 e_persist_2_0_6: - e[2,0,6] + e[2,0,7] >= 0
 e_needs_cumwater_2_0_6: 2000 e[2,0,7] - s[2,0,6] <= 0
 e_only_if_burning_2_0_6: - y[2,0,6] - e[2,0,6] + e[2,0,7] <= 0
 burn_xor_ext_2_0_6: y[2,0,6] + e[2,0,6] <= 1
 e_persist_2_0_7: - e[2,0,7] + e[2,0,8] >= 0
 e_needs_cumwater_2_0_7: 2000 e[2,0,8] - s[2,0,7] <= 0
 e_only_if_burning_2_0_7: - y[2,0,7] - e[2,0,7] + e[2,0,8] <= 0
 burn_xor_ext_2_0_7: y[2,0,7] + e[2,0,7] <= 1
 e_persist_2_0_8: - e[2,0,8] + e[2,0,9] >= 0
 e_needs_cumwater_2_0_8: 2000 e[2,0,9] - s[2,0,8] <= 0
 e_only_if_burning_2_0_8: - y[2,0,8] - e[2,0,8] + e[2,0,9] <= 0
 burn_xor_ext_2_0_8: y[2,0,8] + e[2,0,8] <= 1
 e_persist_2_1_0: - e[2,1,0] + e[2,1,1] >= 0
 e_needs_cumwater_2_1_0: 2000 e[2,1,1] - s[2,1,0] <= 0
 e_only_if_burning_2_1_0: - y[2,1,0] - e[2,1,0] + e[2,1,1] <= 0
 burn_xor_ext_2_1_0: y[2,1,0] + e[2,1,0] <= 1
 e_persist_2_1_1: - e[2,1,1] + e[2,1,2] >= 0
 e_needs_cumwater_2_1_1: 2000 e[2,1,2] - s[2,1,1] <= 0
 e_only_if_burning_2_1_1: - y[2,1,1] - e[2,1,1] + e[2,1,2] <= 0
 burn_xor_ext_2_1_1: y[2,1,1] + e[2,1,1] <= 1
 e_persist_2_1_2: - e[2,1,2] + e[2,1,3] >= 0
 e_needs_cumwater_2_1_2: 2000 e[2,1,3] - s[2,1,2] <= 0
 e_only_if_burning_2_1_2: - y[2,1,2] - e[2,1,2] + e[2,1,3] <= 0
 burn_xor_ext_2_1_2: y[2,1,2] + e[2,1,2] <= 1
 e_persist_2_1_3: - e[2,1,3] + e[2,1,4] >= 0
 e_needs_cumwater_2_1_3: 2000 e[2,1,4] - s[2,1,3] <= 0
 e_only_if_burning_2_1_3: - y[2,1,3] - e[2,1,3] + e[2,1,4] <= 0
 burn_xor_ext_2_1_3: y[2,1,3] + e[2,1,3] <= 1
 e_persist_2_1_4: - e[2,1,4] + e[2,1,5] >= 0
 e_needs_cumwater_2_1_4: 2000 e[2,1,5] - s[2,1,4] <= 0
 e_only_if_burning_2_1_4: - y[2,1,4] - e[2,1,4] + e[2,1,5] <= 0
 burn_xor_ext_2_1_4: y[2,1,4] + e[2,1,4] <= 1
 e_persist_2_1_5: - e[2,1,5] + e[2,1,6] >= 0
 e_needs_cumwater_2_1_5: 2000 e[2,1,6] - s[2,1,5] <= 0
 e_only_if_burning_2_1_5: - y[2,1,5] - e[2,1,5] + e[2,1,6] <= 0
 burn_xor_ext_2_1_5: y[2,1,5] + e[2,1,5] <= 1
 e_persist_2_1_6: - e[2,1,6] + e[2,1,7] >= 0
 e_needs_cumwater_2_1_6: 2000 e[2,1,7] - s[2,1,6] <= 0
 e_only_if_burning_2_1_6: - y[2,1,6] - e[2,1,6] + e[2,1,7] <= 0
 burn_xor_ext_2_1_6: y[2,1,6] + e[2,1,6] <= 1
 e_persist_2_1_7: - e[2,1,7] + e[2,1,8] >= 0
 e_needs_cumwater_2_1_7: 2000 e[2,1,8] - s[2,1,7] <= 0
 e_only_if_burning_2_1_7: - y[2,1,7] - e[2,1,7] + e[2,1,8] <= 0
 burn_xor_ext_2_1_7: y[2,1,7] + e[2,1,7] <= 1
 e_persist_2_1_8: - e[2,1,8] + e[2,1,9] >= 0
 e_needs_cumwater_2_1_8: 2000 e[2,1,9] - s[2,1,8] <= 0
 e_only_if_burning_2_1_8: - y[2,1,8] - e[2,1,8] + e[2,1,9] <= 0
 burn_xor_ext_2_1_8: y[2,1,8] + e[2,1,8] <= 1
 e_persist_2_2_0: - e[2,2,0] + e[2,2,1] >= 0
 e_needs_cumwater_2_2_0: 2000 e[2,2,1] - s[2,2,0] <= 0
 e_only_if_burning_2_2_0: - y[2,2,0] - e[2,2,0] + e[2,2,1] <= 0
 burn_xor_ext_2_2_0: y[2,2,0] + e[2,2,0] <= 1
 e_persist_2_2_1: - e[2,2,1] + e[2,2,2] >= 0
 e_needs_cumwater_2_2_1: 2000 e[2,2,2] - s[2,2,1] <= 0
 e_only_if_burning_2_2_1: - y[2,2,1] - e[2,2,1] + e[2,2,2] <= 0
 burn_xor_ext_2_2_1: y[2,2,1] + e[2,2,1] <= 1
 e_persist_2_2_2: - e[2,2,2] + e[2,2,3] >= 0
 e_needs_cumwater_2_2_2: 2000 e[2,2,3] - s[2,2,2] <= 0
 e_only_if_burning_2_2_2: - y[2,2,2] - e[2,2,2] + e[2,2,3] <= 0
 burn_xor_ext_2_2_2: y[2,2,2] + e[2,2,2] <= 1
 e_persist_2_2_3: - e[2,2,3] + e[2,2,4] >= 0
 e_needs_cumwater_2_2_3: 2000 e[2,2,4] - s[2,2,3] <= 0
 e_only_if_burning_2_2_3: - y[2,2,3] - e[2,2,3] + e[2,2,4] <= 0
 burn_xor_ext_2_2_3: y[2,2,3] + e[2,2,3] <= 1
 e_persist_2_2_4: - e[2,2,4] + e[2,2,5] >= 0
 e_needs_cumwater_2_2_4: 2000 e[2,2,5] - s[2,2,4] <= 0
 e_only_if_burning_2_2_4: - y[2,2,4] - e[2,2,4] + e[2,2,5] <= 0
 burn_xor_ext_2_2_4: y[2,2,4] + e[2,2,4] <= 1
 e_persist_2_2_5: - e[2,2,5] + e[2,2,6] >= 0
 e_needs_cumwater_2_2_5: 2000 e[2,2,6] - s[2,2,5] <= 0
 e_only_if_burning_2_2_5: - y[2,2,5] - e[2,2,5] + e[2,2,6] <= 0
 burn_xor_ext_2_2_5: y[2,2,5] + e[2,2,5] <= 1
 e_persist_2_2_6: - e[2,2,6] + e[2,2,7] >= 0
 e_needs_cumwater_2_2_6: 2000 e[2,2,7] - s[2,2,6] <= 0
 e_only_if_burning_2_2_6: - y[2,2,6] - e[2,2,6] + e[2,2,7] <= 0
 burn_xor_ext_2_2_6: y[2,2,6] + e[2,2,6] <= 1
 e_persist_2_2_7: - e[2,2,7] + e[2,2,8] >= 0
 e_needs_cumwater_2_2_7: 2000 e[2,2,8] - s[2,2,7] <= 0
 e_only_if_burning_2_2_7: - y[2,2,7] - e[2,2,7] + e[2,2,8] <= 0
 burn_xor_ext_2_2_7: y[2,2,7] + e[2,2,7] <= 1
 e_persist_2_2_8: - e[2,2,8] + e[2,2,9] >= 0
 e_needs_cumwater_2_2_8: 2000 e[2,2,9] - s[2,2,8] <= 0
 e_only_if_burning_2_2_8: - y[2,2,8] - e[2,2,8] + e[2,2,9] <= 0
 burn_xor_ext_2_2_8: y[2,2,8] + e[2,2,8] <= 1
 e_persist_2_3_0: - e[2,3,0] + e[2,3,1] >= 0
 e_needs_cumwater_2_3_0: 2000 e[2,3,1] - s[2,3,0] <= 0
 e_only_if_burning_2_3_0: - y[2,3,0] - e[2,3,0] + e[2,3,1] <= 0
 burn_xor_ext_2_3_0: y[2,3,0] + e[2,3,0] <= 1
 e_persist_2_3_1: - e[2,3,1] + e[2,3,2] >= 0
 e_needs_cumwater_2_3_1: 2000 e[2,3,2] - s[2,3,1] <= 0
 e_only_if_burning_2_3_1: - y[2,3,1] - e[2,3,1] + e[2,3,2] <= 0
 burn_xor_ext_2_3_1: y[2,3,1] + e[2,3,1] <= 1
 e_persist_2_3_2: - e[2,3,2] + e[2,3,3] >= 0
 e_needs_cumwater_2_3_2: 2000 e[2,3,3] - s[2,3,2] <= 0
 e_only_if_burning_2_3_2: - y[2,3,2] - e[2,3,2] + e[2,3,3] <= 0
 burn_xor_ext_2_3_2: y[2,3,2] + e[2,3,2] <= 1
 e_persist_2_3_3: - e[2,3,3] + e[2,3,4] >= 0
 e_needs_cumwater_2_3_3: 2000 e[2,3,4] - s[2,3,3] <= 0
 e_only_if_burning_2_3_3: - y[2,3,3] - e[2,3,3] + e[2,3,4] <= 0
 burn_xor_ext_2_3_3: y[2,3,3] + e[2,3,3] <= 1
 e_persist_2_3_4: - e[2,3,4] + e[2,3,5] >= 0
 e_needs_cumwater_2_3_4: 2000 e[2,3,5] - s[2,3,4] <= 0
 e_only_if_burning_2_3_4: - y[2,3,4] - e[2,3,4] + e[2,3,5] <= 0
 burn_xor_ext_2_3_4: y[2,3,4] + e[2,3,4] <= 1
 e_persist_2_3_5: - e[2,3,5] + e[2,3,6] >= 0
 e_needs_cumwater_2_3_5: 2000 e[2,3,6] - s[2,3,5] <= 0
 e_only_if_burning_2_3_5: - y[2,3,5] - e[2,3,5] + e[2,3,6] <= 0
 burn_xor_ext_2_3_5: y[2,3,5] + e[2,3,5] <= 1
 e_persist_2_3_6: - e[2,3,6] + e[2,3,7] >= 0
 e_needs_cumwater_2_3_6: 2000 e[2,3,7] - s[2,3,6] <= 0
 e_only_if_burning_2_3_6: - y[2,3,6] - e[2,3,6] + e[2,3,7] <= 0
 burn_xor_ext_2_3_6: y[2,3,6] + e[2,3,6] <= 1
 e_persist_2_3_7: - e[2,3,7] + e[2,3,8] >= 0
 e_needs_cumwater_2_3_7: 2000 e[2,3,8] - s[2,3,7] <= 0
 e_only_if_burning_2_3_7: - y[2,3,7] - e[2,3,7] + e[2,3,8] <= 0
 burn_xor_ext_2_3_7: y[2,3,7] + e[2,3,7] <= 1
 e_persist_2_3_8: - e[2,3,8] + e[2,3,9] >= 0
 e_needs_cumwater_2_3_8: 2000 e[2,3,9] - s[2,3,8] <= 0
 e_only_if_burning_2_3_8: - y[2,3,8] - e[2,3,8] + e[2,3,9] <= 0
 burn_xor_ext_2_3_8: y[2,3,8] + e[2,3,8] <= 1
 e_persist_2_4_0: - e[2,4,0] + e[2,4,1] >= 0
 e_needs_cumwater_2_4_0: 2000 e[2,4,1] - s[2,4,0] <= 0
 e_only_if_burning_2_4_0: - y[2,4,0] - e[2,4,0] + e[2,4,1] <= 0
 burn_xor_ext_2_4_0: y[2,4,0] + e[2,4,0] <= 1
 e_persist_2_4_1: - e[2,4,1] + e[2,4,2] >= 0
 e_needs_cumwater_2_4_1: 2000 e[2,4,2] - s[2,4,1] <= 0
 e_only_if_burning_2_4_1: - y[2,4,1] - e[2,4,1] + e[2,4,2] <= 0
 burn_xor_ext_2_4_1: y[2,4,1] + e[2,4,1] <= 1
 e_persist_2_4_2: - e[2,4,2] + e[2,4,3] >= 0
 e_needs_cumwater_2_4_2: 2000 e[2,4,3] - s[2,4,2] <= 0
 e_only_if_burning_2_4_2: - y[2,4,2] - e[2,4,2] + e[2,4,3] <= 0
 burn_xor_ext_2_4_2: y[2,4,2] + e[2,4,2] <= 1
 e_persist_2_4_3: - e[2,4,3] + e[2,4,4] >= 0
 e_needs_cumwater_2_4_3: 2000 e[2,4,4] - s[2,4,3] <= 0
 e_only_if_burning_2_4_3: - y[2,4,3] - e[2,4,3] + e[2,4,4] <= 0
 burn_xor_ext_2_4_3: y[2,4,3] + e[2,4,3] <= 1
 e_persist_2_4_4: - e[2,4,4] + e[2,4,5] >= 0
 e_needs_cumwater_2_4_4: 2000 e[2,4,5] - s[2,4,4] <= 0
 e_only_if_burning_2_4_4: - y[2,4,4] - e[2,4,4] + e[2,4,5] <= 0
 burn_xor_ext_2_4_4: y[2,4,4] + e[2,4,4] <= 1
 e_persist_2_4_5: - e[2,4,5] + e[2,4,6] >= 0
 e_needs_cumwater_2_4_5: 2000 e[2,4,6] - s[2,4,5] <= 0
 e_only_if_burning_2_4_5: - y[2,4,5] - e[2,4,5] + e[2,4,6] <= 0
 burn_xor_ext_2_4_5: y[2,4,5] + e[2,4,5] <= 1
 e_persist_2_4_6: - e[2,4,6] + e[2,4,7] >= 0
 e_needs_cumwater_2_4_6: 2000 e[2,4,7] - s[2,4,6] <= 0
 e_only_if_burning_2_4_6: - y[2,4,6] - e[2,4,6] + e[2,4,7] <= 0
 burn_xor_ext_2_4_6: y[2,4,6] + e[2,4,6] <= 1
 e_persist_2_4_7: - e[2,4,7] + e[2,4,8] >= 0
 e_needs_cumwater_2_4_7: 2000 e[2,4,8] - s[2,4,7] <= 0
 e_only_if_burning_2_4_7: - y[2,4,7] - e[2,4,7] + e[2,4,8] <= 0
 burn_xor_ext_2_4_7: y[2,4,7] + e[2,4,7] <= 1
 e_persist_2_4_8: - e[2,4,8] + e[2,4,9] >= 0
 e_needs_cumwater_2_4_8: 2000 e[2,4,9] - s[2,4,8] <= 0
 e_only_if_burning_2_4_8: - y[2,4,8] - e[2,4,8] + e[2,4,9] <= 0
 burn_xor_ext_2_4_8: y[2,4,8] + e[2,4,8] <= 1
 e_persist_3_0_0: - e[3,0,0] + e[3,0,1] >= 0
 e_needs_cumwater_3_0_0: 2000 e[3,0,1] - s[3,0,0] <= 0
 e_only_if_burning_3_0_0: - y[3,0,0] - e[3,0,0] + e[3,0,1] <= 0
 burn_xor_ext_3_0_0: y[3,0,0] + e[3,0,0] <= 1
 e_persist_3_0_1: - e[3,0,1] + e[3,0,2] >= 0
 e_needs_cumwater_3_0_1: 2000 e[3,0,2] - s[3,0,1] <= 0
 e_only_if_burning_3_0_1: - y[3,0,1] - e[3,0,1] + e[3,0,2] <= 0
 burn_xor_ext_3_0_1: y[3,0,1] + e[3,0,1] <= 1
 e_persist_3_0_2: - e[3,0,2] + e[3,0,3] >= 0
 e_needs_cumwater_3_0_2: 2000 e[3,0,3] - s[3,0,2] <= 0
 e_only_if_burning_3_0_2: - y[3,0,2] - e[3,0,2] + e[3,0,3] <= 0
 burn_xor_ext_3_0_2: y[3,0,2] + e[3,0,2] <= 1
 e_persist_3_0_3: - e[3,0,3] + e[3,0,4] >= 0
 e_needs_cumwater_3_0_3: 2000 e[3,0,4] - s[3,0,3] <= 0
 e_only_if_burning_3_0_3: - y[3,0,3] - e[3,0,3] + e[3,0,4] <= 0
 burn_xor_ext_3_0_3: y[3,0,3] + e[3,0,3] <= 1
 e_persist_3_0_4: - e[3,0,4] + e[3,0,5] >= 0
 e_needs_cumwater_3_0_4: 2000 e[3,0,5] - s[3,0,4] <= 0
 e_only_if_burning_3_0_4: - y[3,0,4] - e[3,0,4] + e[3,0,5] <= 0
 burn_xor_ext_3_0_4: y[3,0,4] + e[3,0,4] <= 1
 e_persist_3_0_5: - e[3,0,5] + e[3,0,6] >= 0
 e_needs_cumwater_3_0_5: 2000 e[3,0,6] - s[3,0,5] <= 0
 e_only_if_burning_3_0_5: - y[3,0,5] - e[3,0,5] + e[3,0,6] <= 0
 burn_xor_ext_3_0_5: y[3,0,5] + e[3,0,5] <= 1
 e_persist_3_0_6: - e[3,0,6] + e[3,0,7] >= 0
 e_needs_cumwater_3_0_6: 2000 e[3,0,7] - s[3,0,6] <= 0
 e_only_if_burning_3_0_6: - y[3,0,6] - e[3,0,6] + e[3,0,7] <= 0
 burn_xor_ext_3_0_6: y[3,0,6] + e[3,0,6] <= 1
 e_persist_3_0_7: - e[3,0,7] + e[3,0,8] >= 0
 e_needs_cumwater_3_0_7: 2000 e[3,0,8] - s[3,0,7] <= 0
 e_only_if_burning_3_0_7: - y[3,0,7] - e[3,0,7] + e[3,0,8] <= 0
 burn_xor_ext_3_0_7: y[3,0,7] + e[3,0,7] <= 1
 e_persist_3_0_8: - e[3,0,8] + e[3,0,9] >= 0
 e_needs_cumwater_3_0_8: 2000 e[3,0,9] - s[3,0,8] <= 0
 e_only_if_burning_3_0_8: - y[3,0,8] - e[3,0,8] + e[3,0,9] <= 0
 burn_xor_ext_3_0_8: y[3,0,8] + e[3,0,8] <= 1
 e_persist_3_1_0: - e[3,1,0] + e[3,1,1] >= 0
 e_needs_cumwater_3_1_0: 2000 e[3,1,1] - s[3,1,0] <= 0
 e_only_if_burning_3_1_0: - y[3,1,0] - e[3,1,0] + e[3,1,1] <= 0
 burn_xor_ext_3_1_0: y[3,1,0] + e[3,1,0] <= 1
 e_persist_3_1_1: - e[3,1,1] + e[3,1,2] >= 0
 e_needs_cumwater_3_1_1: 2000 e[3,1,2] - s[3,1,1] <= 0
 e_only_if_burning_3_1_1: - y[3,1,1] - e[3,1,1] + e[3,1,2] <= 0
 burn_xor_ext_3_1_1: y[3,1,1] + e[3,1,1] <= 1
 e_persist_3_1_2: - e[3,1,2] + e[3,1,3] >= 0
 e_needs_cumwater_3_1_2: 2000 e[3,1,3] - s[3,1,2] <= 0
 e_only_if_burning_3_1_2: - y[3,1,2] - e[3,1,2] + e[3,1,3] <= 0
 burn_xor_ext_3_1_2: y[3,1,2] + e[3,1,2] <= 1
 e_persist_3_1_3: - e[3,1,3] + e[3,1,4] >= 0
 e_needs_cumwater_3_1_3: 2000 e[3,1,4] - s[3,1,3] <= 0
 e_only_if_burning_3_1_3: - y[3,1,3] - e[3,1,3] + e[3,1,4] <= 0
 burn_xor_ext_3_1_3: y[3,1,3] + e[3,1,3] <= 1
 e_persist_3_1_4: - e[3,1,4] + e[3,1,5] >= 0
 e_needs_cumwater_3_1_4: 2000 e[3,1,5] - s[3,1,4] <= 0
 e_only_if_burning_3_1_4: - y[3,1,4] - e[3,1,4] + e[3,1,5] <= 0
 burn_xor_ext_3_1_4: y[3,1,4] + e[3,1,4] <= 1
 e_persist_3_1_5: - e[3,1,5] + e[3,1,6] >= 0
 e_needs_cumwater_3_1_5: 2000 e[3,1,6] - s[3,1,5] <= 0
 e_only_if_burning_3_1_5: - y[3,1,5] - e[3,1,5] + e[3,1,6] <= 0
 burn_xor_ext_3_1_5: y[3,1,5] + e[3,1,5] <= 1
 e_persist_3_1_6: - e[3,1,6] + e[3,1,7] >= 0
 e_needs_cumwater_3_1_6: 2000 e[3,1,7] - s[3,1,6] <= 0
 e_only_if_burning_3_1_6: - y[3,1,6] - e[3,1,6] + e[3,1,7] <= 0
 burn_xor_ext_3_1_6: y[3,1,6] + e[3,1,6] <= 1
 e_persist_3_1_7: - e[3,1,7] + e[3,1,8] >= 0
 e_needs_cumwater_3_1_7: 2000 e[3,1,8] - s[3,1,7] <= 0
 e_only_if_burning_3_1_7: - y[3,1,7] - e[3,1,7] + e[3,1,8] <= 0
 burn_xor_ext_3_1_7: y[3,1,7] + e[3,1,7] <= 1
 e_persist_3_1_8: - e[3,1,8] + e[3,1,9] >= 0
 e_needs_cumwater_3_1_8: 2000 e[3,1,9] - s[3,1,8] <= 0
 e_only_if_burning_3_1_8: - y[3,1,8] - e[3,1,8] + e[3,1,9] <= 0
 burn_xor_ext_3_1_8: y[3,1,8] + e[3,1,8] <= 1
 e_persist_3_2_0: - e[3,2,0] + e[3,2,1] >= 0
 e_needs_cumwater_3_2_0: 2000 e[3,2,1] - s[3,2,0] <= 0
 e_only_if_burning_3_2_0: - y[3,2,0] - e[3,2,0] + e[3,2,1] <= 0
 burn_xor_ext_3_2_0: y[3,2,0] + e[3,2,0] <= 1
 e_persist_3_2_1: - e[3,2,1] + e[3,2,2] >= 0
 e_needs_cumwater_3_2_1: 2000 e[3,2,2] - s[3,2,1] <= 0
 e_only_if_burning_3_2_1: - y[3,2,1] - e[3,2,1] + e[3,2,2] <= 0
 burn_xor_ext_3_2_1: y[3,2,1] + e[3,2,1] <= 1
 e_persist_3_2_2: - e[3,2,2] + e[3,2,3] >= 0
 e_needs_cumwater_3_2_2: 2000 e[3,2,3] - s[3,2,2] <= 0
 e_only_if_burning_3_2_2: - y[3,2,2] - e[3,2,2] + e[3,2,3] <= 0
 burn_xor_ext_3_2_2: y[3,2,2] + e[3,2,2] <= 1
 e_persist_3_2_3: - e[3,2,3] + e[3,2,4] >= 0
 e_needs_cumwater_3_2_3: 2000 e[3,2,4] - s[3,2,3] <= 0
 e_only_if_burning_3_2_3: - y[3,2,3] - e[3,2,3] + e[3,2,4] <= 0
 burn_xor_ext_3_2_3: y[3,2,3] + e[3,2,3] <= 1
 e_persist_3_2_4: - e[3,2,4] + e[3,2,5] >= 0
 e_needs_cumwater_3_2_4: 2000 e[3,2,5] - s[3,2,4] <= 0
 e_only_if_burning_3_2_4: - y[3,2,4] - e[3,2,4] + e[3,2,5] <= 0
 burn_xor_ext_3_2_4: y[3,2,4] + e[3,2,4] <= 1
 e_persist_3_2_5: - e[3,2,5] + e[3,2,6] >= 0
 e_needs_cumwater_3_2_5: 2000 e[3,2,6] - s[3,2,5] <= 0
 e_only_if_burning_3_2_5: - y[3,2,5] - e[3,2,5] + e[3,2,6] <= 0
 burn_xor_ext_3_2_5: y[3,2,5] + e[3,2,5] <= 1
 e_persist_3_2_6: - e[3,2,6] + e[3,2,7] >= 0
 e_needs_cumwater_3_2_6: 2000 e[3,2,7] - s[3,2,6] <= 0
 e_only_if_burning_3_2_6: - y[3,2,6] - e[3,2,6] + e[3,2,7] <= 0
 burn_xor_ext_3_2_6: y[3,2,6] + e[3,2,6] <= 1
 e_persist_3_2_7: - e[3,2,7] + e[3,2,8] >= 0
 e_needs_cumwater_3_2_7: 2000 e[3,2,8] - s[3,2,7] <= 0
 e_only_if_burning_3_2_7: - y[3,2,7] - e[3,2,7] + e[3,2,8] <= 0
 burn_xor_ext_3_2_7: y[3,2,7] + e[3,2,7] <= 1
 e_persist_3_2_8: - e[3,2,8] + e[3,2,9] >= 0
 e_needs_cumwater_3_2_8: 2000 e[3,2,9] - s[3,2,8] <= 0
 e_only_if_burning_3_2_8: - y[3,2,8] - e[3,2,8] + e[3,2,9] <= 0
 burn_xor_ext_3_2_8: y[3,2,8] + e[3,2,8] <= 1
 e_persist_3_3_0: - e[3,3,0] + e[3,3,1] >= 0
 e_needs_cumwater_3_3_0: 2000 e[3,3,1] - s[3,3,0] <= 0
 e_only_if_burning_3_3_0: - y[3,3,0] - e[3,3,0] + e[3,3,1] <= 0
 burn_xor_ext_3_3_0: y[3,3,0] + e[3,3,0] <= 1
 e_persist_3_3_1: - e[3,3,1] + e[3,3,2] >= 0
 e_needs_cumwater_3_3_1: 2000 e[3,3,2] - s[3,3,1] <= 0
 e_only_if_burning_3_3_1: - y[3,3,1] - e[3,3,1] + e[3,3,2] <= 0
 burn_xor_ext_3_3_1: y[3,3,1] + e[3,3,1] <= 1
 e_persist_3_3_2: - e[3,3,2] + e[3,3,3] >= 0
 e_needs_cumwater_3_3_2: 2000 e[3,3,3] - s[3,3,2] <= 0
 e_only_if_burning_3_3_2: - y[3,3,2] - e[3,3,2] + e[3,3,3] <= 0
 burn_xor_ext_3_3_2: y[3,3,2] + e[3,3,2] <= 1
 e_persist_3_3_3: - e[3,3,3] + e[3,3,4] >= 0
 e_needs_cumwater_3_3_3: 2000 e[3,3,4] - s[3,3,3] <= 0
 e_only_if_burning_3_3_3: - y[3,3,3] - e[3,3,3] + e[3,3,4] <= 0
 burn_xor_ext_3_3_3: y[3,3,3] + e[3,3,3] <= 1
 e_persist_3_3_4: - e[3,3,4] + e[3,3,5] >= 0
 e_needs_cumwater_3_3_4: 2000 e[3,3,5] - s[3,3,4] <= 0
 e_only_if_burning_3_3_4: - y[3,3,4] - e[3,3,4] + e[3,3,5] <= 0
 burn_xor_ext_3_3_4: y[3,3,4] + e[3,3,4] <= 1
 e_persist_3_3_5: - e[3,3,5] + e[3,3,6] >= 0
 e_needs_cumwater_3_3_5: 2000 e[3,3,6] - s[3,3,5] <= 0
 e_only_if_burning_3_3_5: - y[3,3,5] - e[3,3,5] + e[3,3,6] <= 0
 burn_xor_ext_3_3_5: y[3,3,5] + e[3,3,5] <= 1
 e_persist_3_3_6: - e[3,3,6] + e[3,3,7] >= 0
 e_needs_cumwater_3_3_6: 2000 e[3,3,7] - s[3,3,6] <= 0
 e_only_if_burning_3_3_6: - y[3,3,6] - e[3,3,6] + e[3,3,7] <= 0
 burn_xor_ext_3_3_6: y[3,3,6] + e[3,3,6] <= 1
 e_persist_3_3_7: - e[3,3,7] + e[3,3,8] >= 0
 e_needs_cumwater_3_3_7: 2000 e[3,3,8] - s[3,3,7] <= 0
 e_only_if_burning_3_3_7: - y[3,3,7] - e[3,3,7] + e[3,3,8] <= 0
 burn_xor_ext_3_3_7: y[3,3,7] + e[3,3,7] <= 1
 e_persist_3_3_8: - e[3,3,8] + e[3,3,9] >= 0
 e_needs_cumwater_3_3_8: 2000 e[3,3,9] - s[3,3,8] <= 0
 e_only_if_burning_3_3_8: - y[3,3,8] - e[3,3,8] + e[3,3,9] <= 0
 burn_xor_ext_3_3_8: y[3,3,8] + e[3,3,8] <= 1
 e_persist_3_4_0: - e[3,4,0] + e[3,4,1] >= 0
 e_needs_cumwater_3_4_0: 2000 e[3,4,1] - s[3,4,0] <= 0
 e_only_if_burning_3_4_0: - y[3,4,0] - e[3,4,0] + e[3,4,1] <= 0
 burn_xor_ext_3_4_0: y[3,4,0] + e[3,4,0] <= 1
 e_persist_3_4_1: - e[3,4,1] + e[3,4,2] >= 0
 e_needs_cumwater_3_4_1: 2000 e[3,4,2] - s[3,4,1] <= 0
 e_only_if_burning_3_4_1: - y[3,4,1] - e[3,4,1] + e[3,4,2] <= 0
 burn_xor_ext_3_4_1: y[3,4,1] + e[3,4,1] <= 1
 e_persist_3_4_2: - e[3,4,2] + e[3,4,3] >= 0
 e_needs_cumwater_3_4_2: 2000 e[3,4,3] - s[3,4,2] <= 0
 e_only_if_burning_3_4_2: - y[3,4,2] - e[3,4,2] + e[3,4,3] <= 0
 burn_xor_ext_3_4_2: y[3,4,2] + e[3,4,2] <= 1
 e_persist_3_4_3: - e[3,4,3] + e[3,4,4] >= 0
 e_needs_cumwater_3_4_3: 2000 e[3,4,4] - s[3,4,3] <= 0
 e_only_if_burning_3_4_3: - y[3,4,3] - e[3,4,3] + e[3,4,4] <= 0
 burn_xor_ext_3_4_3: y[3,4,3] + e[3,4,3] <= 1
 e_persist_3_4_4: - e[3,4,4] + e[3,4,5] >= 0
 e_needs_cumwater_3_4_4: 2000 e[3,4,5] - s[3,4,4] <= 0
 e_only_if_burning_3_4_4: - y[3,4,4] - e[3,4,4] + e[3,4,5] <= 0
 burn_xor_ext_3_4_4: y[3,4,4] + e[3,4,4] <= 1
 e_persist_3_4_5: - e[3,4,5] + e[3,4,6] >= 0
 e_needs_cumwater_3_4_5: 2000 e[3,4,6] - s[3,4,5] <= 0
 e_only_if_burning_3_4_5: - y[3,4,5] - e[3,4,5] + e[3,4,6] <= 0
 burn_xor_ext_3_4_5: y[3,4,5] + e[3,4,5] <= 1
 e_persist_3_4_6: - e[3,4,6] + e[3,4,7] >= 0
 e_needs_cumwater_3_4_6: 2000 e[3,4,7] - s[3,4,6] <= 0
 e_only_if_burning_3_4_6: - y[3,4,6] - e[3,4,6] + e[3,4,7] <= 0
 burn_xor_ext_3_4_6: y[3,4,6] + e[3,4,6] <= 1
 e_persist_3_4_7: - e[3,4,7] + e[3,4,8] >= 0
 e_needs_cumwater_3_4_7: 2000 e[3,4,8] - s[3,4,7] <= 0
 e_only_if_burning_3_4_7: - y[3,4,7] - e[3,4,7] + e[3,4,8] <= 0
 burn_xor_ext_3_4_7: y[3,4,7] + e[3,4,7] <= 1
 e_persist_3_4_8: - e[3,4,8] + e[3,4,9] >= 0
 e_needs_cumwater_3_4_8: 2000 e[3,4,9] - s[3,4,8] <= 0
 e_only_if_burning_3_4_8: - y[3,4,8] - e[3,4,8] + e[3,4,9] <= 0
 burn_xor_ext_3_4_8: y[3,4,8] + e[3,4,8] <= 1
 e_persist_4_0_0: - e[4,0,0] + e[4,0,1] >= 0
 e_needs_cumwater_4_0_0: 2000 e[4,0,1] - s[4,0,0] <= 0
 e_only_if_burning_4_0_0: - y[4,0,0] - e[4,0,0] + e[4,0,1] <= 0
 burn_xor_ext_4_0_0: y[4,0,0] + e[4,0,0] <= 1
 e_persist_4_0_1: - e[4,0,1] + e[4,0,2] >= 0
 e_needs_cumwater_4_0_1: 2000 e[4,0,2] - s[4,0,1] <= 0
 e_only_if_burning_4_0_1: - y[4,0,1] - e[4,0,1] + e[4,0,2] <= 0
 burn_xor_ext_4_0_1: y[4,0,1] + e[4,0,1] <= 1
 e_persist_4_0_2: - e[4,0,2] + e[4,0,3] >= 0
 e_needs_cumwater_4_0_2: 2000 e[4,0,3] - s[4,0,2] <= 0
 e_only_if_burning_4_0_2: - y[4,0,2] - e[4,0,2] + e[4,0,3] <= 0
 burn_xor_ext_4_0_2: y[4,0,2] + e[4,0,2] <= 1
 e_persist_4_0_3: - e[4,0,3] + e[4,0,4] >= 0
 e_needs_cumwater_4_0_3: 2000 e[4,0,4] - s[4,0,3] <= 0
 e_only_if_burning_4_0_3: - y[4,0,3] - e[4,0,3] + e[4,0,4] <= 0
 burn_xor_ext_4_0_3: y[4,0,3] + e[4,0,3] <= 1
 e_persist_4_0_4: - e[4,0,4] + e[4,0,5] >= 0
 e_needs_cumwater_4_0_4: 2000 e[4,0,5] - s[4,0,4] <= 0
 e_only_if_burning_4_0_4: - y[4,0,4] - e[4,0,4] + e[4,0,5] <= 0
 burn_xor_ext_4_0_4: y[4,0,4] + e[4,0,4] <= 1
 e_persist_4_0_5: - e[4,0,5] + e[4,0,6] >= 0
 e_needs_cumwater_4_0_5: 2000 e[4,0,6] - s[4,0,5] <= 0
 e_only_if_burning_4_0_5: - y[4,0,5] - e[4,0,5] + e[4,0,6] <= 0
 burn_xor_ext_4_0_5: y[4,0,5] + e[4,0,5] <= 1
 e_persist_4_0_6: - e[4,0,6] + e[4,0,7] >= 0
 e_needs_cumwater_4_0_6: 2000 e[4,0,7] - s[4,0,6] <= 0
 e_only_if_burning_4_0_6: - y[4,0,6] - e[4,0,6] + e[4,0,7] <= 0
 burn_xor_ext_4_0_6: y[4,0,6] + e[4,0,6] <= 1
 e_persist_4_0_7: - e[4,0,7] + e[4,0,8] >= 0
 e_needs_cumwater_4_0_7: 2000 e[4,0,8] - s[4,0,7] <= 0
 e_only_if_burning_4_0_7: - y[4,0,7] - e[4,0,7] + e[4,0,8] <= 0
 burn_xor_ext_4_0_7: y[4,0,7] + e[4,0,7] <= 1
 e_persist_4_0_8: - e[4,0,8] + e[4,0,9] >= 0
 e_needs_cumwater_4_0_8: 2000 e[4,0,9] - s[4,0,8] <= 0
 e_only_if_burning_4_0_8: - y[4,0,8] - e[4,0,8] + e[4,0,9] <= 0
 burn_xor_ext_4_0_8: y[4,0,8] + e[4,0,8] <= 1
 e_persist_4_1_0: - e[4,1,0] + e[4,1,1] >= 0
 e_needs_cumwater_4_1_0: 2000 e[4,1,1] - s[4,1,0] <= 0
 e_only_if_burning_4_1_0: - y[4,1,0] - e[4,1,0] + e[4,1,1] <= 0
 burn_xor_ext_4_1_0: y[4,1,0] + e[4,1,0] <= 1
 e_persist_4_1_1: - e[4,1,1] + e[4,1,2] >= 0
 e_needs_cumwater_4_1_1: 2000 e[4,1,2] - s[4,1,1] <= 0
 e_only_if_burning_4_1_1: - y[4,1,1] - e[4,1,1] + e[4,1,2] <= 0
 burn_xor_ext_4_1_1: y[4,1,1] + e[4,1,1] <= 1
 e_persist_4_1_2: - e[4,1,2] + e[4,1,3] >= 0
 e_needs_cumwater_4_1_2: 2000 e[4,1,3] - s[4,1,2] <= 0
 e_only_if_burning_4_1_2: - y[4,1,2] - e[4,1,2] + e[4,1,3] <= 0
 burn_xor_ext_4_1_2: y[4,1,2] + e[4,1,2] <= 1
 e_persist_4_1_3: - e[4,1,3] + e[4,1,4] >= 0
 e_needs_cumwater_4_1_3: 2000 e[4,1,4] - s[4,1,3] <= 0
 e_only_if_burning_4_1_3: - y[4,1,3] - e[4,1,3] + e[4,1,4] <= 0
 burn_xor_ext_4_1_3: y[4,1,3] + e[4,1,3] <= 1
 e_persist_4_1_4: - e[4,1,4] + e[4,1,5] >= 0
 e_needs_cumwater_4_1_4: 2000 e[4,1,5] - s[4,1,4] <= 0
 e_only_if_burning_4_1_4: - y[4,1,4] - e[4,1,4] + e[4,1,5] <= 0
 burn_xor_ext_4_1_4: y[4,1,4] + e[4,1,4] <= 1
 e_persist_4_1_5: - e[4,1,5] + e[4,1,6] >= 0
 e_needs_cumwater_4_1_5: 2000 e[4,1,6] - s[4,1,5] <= 0
 e_only_if_burning_4_1_5: - y[4,1,5] - e[4,1,5] + e[4,1,6] <= 0
 burn_xor_ext_4_1_5: y[4,1,5] + e[4,1,5] <= 1
 e_persist_4_1_6: - e[4,1,6] + e[4,1,7] >= 0
 e_needs_cumwater_4_1_6: 2000 e[4,1,7] - s[4,1,6] <= 0
 e_only_if_burning_4_1_6: - y[4,1,6] - e[4,1,6] + e[4,1,7] <= 0
 burn_xor_ext_4_1_6: y[4,1,6] + e[4,1,6] <= 1
 e_persist_4_1_7: - e[4,1,7] + e[4,1,8] >= 0
 e_needs_cumwater_4_1_7: 2000 e[4,1,8] - s[4,1,7] <= 0
 e_only_if_burning_4_1_7: - y[4,1,7] - e[4,1,7] + e[4,1,8] <= 0
 burn_xor_ext_4_1_7: y[4,1,7] + e[4,1,7] <= 1
 e_persist_4_1_8: - e[4,1,8] + e[4,1,9] >= 0
 e_needs_cumwater_4_1_8: 2000 e[4,1,9] - s[4,1,8] <= 0
 e_only_if_burning_4_1_8: - y[4,1,8] - e[4,1,8] + e[4,1,9] <= 0
 burn_xor_ext_4_1_8: y[4,1,8] + e[4,1,8] <= 1
 e_persist_4_2_0: - e[4,2,0] + e[4,2,1] >= 0
 e_needs_cumwater_4_2_0: 2000 e[4,2,1] - s[4,2,0] <= 0
 e_only_if_burning_4_2_0: - y[4,2,0] - e[4,2,0] + e[4,2,1] <= 0
 burn_xor_ext_4_2_0: y[4,2,0] + e[4,2,0] <= 1
 e_persist_4_2_1: - e[4,2,1] + e[4,2,2] >= 0
 e_needs_cumwater_4_2_1: 2000 e[4,2,2] - s[4,2,1] <= 0
 e_only_if_burning_4_2_1: - y[4,2,1] - e[4,2,1] + e[4,2,2] <= 0
 burn_xor_ext_4_2_1: y[4,2,1] + e[4,2,1] <= 1
 e_persist_4_2_2: - e[4,2,2] + e[4,2,3] >= 0
 e_needs_cumwater_4_2_2: 2000 e[4,2,3] - s[4,2,2] <= 0
 e_only_if_burning_4_2_2: - y[4,2,2] - e[4,2,2] + e[4,2,3] <= 0
 burn_xor_ext_4_2_2: y[4,2,2] + e[4,2,2] <= 1
 e_persist_4_2_3: - e[4,2,3] + e[4,2,4] >= 0
 e_needs_cumwater_4_2_3: 2000 e[4,2,4] - s[4,2,3] <= 0
 e_only_if_burning_4_2_3: - y[4,2,3] - e[4,2,3] + e[4,2,4] <= 0
 burn_xor_ext_4_2_3: y[4,2,3] + e[4,2,3] <= 1
 e_persist_4_2_4: - e[4,2,4] + e[4,2,5] >= 0
 e_needs_cumwater_4_2_4: 2000 e[4,2,5] - s[4,2,4] <= 0
 e_only_if_burning_4_2_4: - y[4,2,4] - e[4,2,4] + e[4,2,5] <= 0
 burn_xor_ext_4_2_4: y[4,2,4] + e[4,2,4] <= 1
 e_persist_4_2_5: - e[4,2,5] + e[4,2,6] >= 0
 e_needs_cumwater_4_2_5: 2000 e[4,2,6] - s[4,2,5] <= 0
 e_only_if_burning_4_2_5: - y[4,2,5] - e[4,2,5] + e[4,2,6] <= 0
 burn_xor_ext_4_2_5: y[4,2,5] + e[4,2,5] <= 1
 e_persist_4_2_6: - e[4,2,6] + e[4,2,7] >= 0
 e_needs_cumwater_4_2_6: 2000 e[4,2,7] - s[4,2,6] <= 0
 e_only_if_burning_4_2_6: - y[4,2,6] - e[4,2,6] + e[4,2,7] <= 0
 burn_xor_ext_4_2_6: y[4,2,6] + e[4,2,6] <= 1
 e_persist_4_2_7: - e[4,2,7] + e[4,2,8] >= 0
 e_needs_cumwater_4_2_7: 2000 e[4,2,8] - s[4,2,7] <= 0
 e_only_if_burning_4_2_7: - y[4,2,7] - e[4,2,7] + e[4,2,8] <= 0
 burn_xor_ext_4_2_7: y[4,2,7] + e[4,2,7] <= 1
 e_persist_4_2_8: - e[4,2,8] + e[4,2,9] >= 0
 e_needs_cumwater_4_2_8: 2000 e[4,2,9] - s[4,2,8] <= 0
 e_only_if_burning_4_2_8: - y[4,2,8] - e[4,2,8] + e[4,2,9] <= 0
 burn_xor_ext_4_2_8: y[4,2,8] + e[4,2,8] <= 1
 e_persist_4_3_0: - e[4,3,0] + e[4,3,1] >= 0
 e_needs_cumwater_4_3_0: 2000 e[4,3,1] - s[4,3,0] <= 0
 e_only_if_burning_4_3_0: - y[4,3,0] - e[4,3,0] + e[4,3,1] <= 0
 burn_xor_ext_4_3_0: y[4,3,0] + e[4,3,0] <= 1
 e_persist_4_3_1: - e[4,3,1] + e[4,3,2] >= 0
 e_needs_cumwater_4_3_1: 2000 e[4,3,2] - s[4,3,1] <= 0
 e_only_if_burning_4_3_1: - y[4,3,1] - e[4,3,1] + e[4,3,2] <= 0
 burn_xor_ext_4_3_1: y[4,3,1] + e[4,3,1] <= 1
 e_persist_4_3_2: - e[4,3,2] + e[4,3,3] >= 0
 e_needs_cumwater_4_3_2: 2000 e[4,3,3] - s[4,3,2] <= 0
 e_only_if_burning_4_3_2: - y[4,3,2] - e[4,3,2] + e[4,3,3] <= 0
 burn_xor_ext_4_3_2: y[4,3,2] + e[4,3,2] <= 1
 e_persist_4_3_3: - e[4,3,3] + e[4,3,4] >= 0
 e_needs_cumwater_4_3_3: 2000 e[4,3,4] - s[4,3,3] <= 0
 e_only_if_burning_4_3_3: - y[4,3,3] - e[4,3,3] + e[4,3,4] <= 0
 burn_xor_ext_4_3_3: y[4,3,3] + e[4,3,3] <= 1
 e_persist_4_3_4: - e[4,3,4] + e[4,3,5] >= 0
 e_needs_cumwater_4_3_4: 2000 e[4,3,5] - s[4,3,4] <= 0
 e_only_if_burning_4_3_4: - y[4,3,4] - e[4,3,4] + e[4,3,5] <= 0
 burn_xor_ext_4_3_4: y[4,3,4] + e[4,3,4] <= 1
 e_persist_4_3_5: - e[4,3,5] + e[4,3,6] >= 0
 e_needs_cumwater_4_3_5: 2000 e[4,3,6] - s[4,3,5] <= 0
 e_only_if_burning_4_3_5: - y[4,3,5] - e[4,3,5] + e[4,3,6] <= 0
 burn_xor_ext_4_3_5: y[4,3,5] + e[4,3,5] <= 1
 e_persist_4_3_6: - e[4,3,6] + e[4,3,7] >= 0
 e_needs_cumwater_4_3_6: 2000 e[4,3,7] - s[4,3,6] <= 0
 e_only_if_burning_4_3_6: - y[4,3,6] - e[4,3,6] + e[4,3,7] <= 0
 burn_xor_ext_4_3_6: y[4,3,6] + e[4,3,6] <= 1
 e_persist_4_3_7: - e[4,3,7] + e[4,3,8] >= 0
 e_needs_cumwater_4_3_7: 2000 e[4,3,8] - s[4,3,7] <= 0
 e_only_if_burning_4_3_7: - y[4,3,7] - e[4,3,7] + e[4,3,8] <= 0
 burn_xor_ext_4_3_7: y[4,3,7] + e[4,3,7] <= 1
 e_persist_4_3_8: - e[4,3,8] + e[4,3,9] >= 0
 e_needs_cumwater_4_3_8: 2000 e[4,3,9] - s[4,3,8] <= 0
 e_only_if_burning_4_3_8: - y[4,3,8] - e[4,3,8] + e[4,3,9] <= 0
 burn_xor_ext_4_3_8: y[4,3,8] + e[4,3,8] <= 1
 e_persist_4_4_0: - e[4,4,0] + e[4,4,1] >= 0
 e_needs_cumwater_4_4_0: 2000 e[4,4,1] - s[4,4,0] <= 0
 e_only_if_burning_4_4_0: - y[4,4,0] - e[4,4,0] + e[4,4,1] <= 0
 burn_xor_ext_4_4_0: y[4,4,0] + e[4,4,0] <= 1
 e_persist_4_4_1: - e[4,4,1] + e[4,4,2] >= 0
 e_needs_cumwater_4_4_1: 2000 e[4,4,2] - s[4,4,1] <= 0
 e_only_if_burning_4_4_1: - y[4,4,1] - e[4,4,1] + e[4,4,2] <= 0
 burn_xor_ext_4_4_1: y[4,4,1] + e[4,4,1] <= 1
 e_persist_4_4_2: - e[4,4,2] + e[4,4,3] >= 0
 e_needs_cumwater_4_4_2: 2000 e[4,4,3] - s[4,4,2] <= 0
 e_only_if_burning_4_4_2: - y[4,4,2] - e[4,4,2] + e[4,4,3] <= 0
 burn_xor_ext_4_4_2: y[4,4,2] + e[4,4,2] <= 1
 e_persist_4_4_3: - e[4,4,3] + e[4,4,4] >= 0
 e_needs_cumwater_4_4_3: 2000 e[4,4,4] - s[4,4,3] <= 0
 e_only_if_burning_4_4_3: - y[4,4,3] - e[4,4,3] + e[4,4,4] <= 0
 burn_xor_ext_4_4_3: y[4,4,3] + e[4,4,3] <= 1
 e_persist_4_4_4: - e[4,4,4] + e[4,4,5] >= 0
 e_needs_cumwater_4_4_4: 2000 e[4,4,5] - s[4,4,4] <= 0
 e_only_if_burning_4_4_4: - y[4,4,4] - e[4,4,4] + e[4,4,5] <= 0
 burn_xor_ext_4_4_4: y[4,4,4] + e[4,4,4] <= 1
 e_persist_4_4_5: - e[4,4,5] + e[4,4,6] >= 0
 e_needs_cumwater_4_4_5: 2000 e[4,4,6] - s[4,4,5] <= 0
 e_only_if_burning_4_4_5: - y[4,4,5] - e[4,4,5] + e[4,4,6] <= 0
 burn_xor_ext_4_4_5: y[4,4,5] + e[4,4,5] <= 1
 e_persist_4_4_6: - e[4,4,6] + e[4,4,7] >= 0
 e_needs_cumwater_4_4_6: 2000 e[4,4,7] - s[4,4,6] <= 0
 e_only_if_burning_4_4_6: - y[4,4,6] - e[4,4,6] + e[4,4,7] <= 0
 burn_xor_ext_4_4_6: y[4,4,6] + e[4,4,6] <= 1
 e_persist_4_4_7: - e[4,4,7] + e[4,4,8] >= 0
 e_needs_cumwater_4_4_7: 2000 e[4,4,8] - s[4,4,7] <= 0
 e_only_if_burning_4_4_7: - y[4,4,7] - e[4,4,7] + e[4,4,8] <= 0
 burn_xor_ext_4_4_7: y[4,4,7] + e[4,4,7] <= 1
 e_persist_4_4_8: - e[4,4,8] + e[4,4,9] >= 0
 e_needs_cumwater_4_4_8: 2000 e[4,4,9] - s[4,4,8] <= 0
 e_only_if_burning_4_4_8: - y[4,4,8] - e[4,4,8] + e[4,4,9] <= 0
 burn_xor_ext_4_4_8: y[4,4,8] + e[4,4,8] <= 1
 fire_persist_0_0_0: - y[0,0,0] + y[0,0,1] + e[0,0,1] >= 0
 fire_spread_0_0_1_0_0: y[0,0,1] - y[1,0,0] + e[0,0,1] >= 0
 fire_spread_0_0_0_1_0: y[0,0,1] - y[0,1,0] + e[0,0,1] >= 0
 fire_ub_0_0_0: - y[0,0,0] + y[0,0,1] - y[0,1,0] - y[1,0,0] <= 0
 fire_persist_0_0_1: - y[0,0,1] + y[0,0,2] + e[0,0,2] >= 0
 fire_spread_0_0_1_0_1: y[0,0,2] - y[1,0,1] + e[0,0,2] >= 0
 fire_spread_0_0_0_1_1: y[0,0,2] - y[0,1,1] + e[0,0,2] >= 0
 fire_ub_0_0_1: - y[0,0,1] + y[0,0,2] - y[0,1,1] - y[1,0,1] <= 0
 fire_persist_0_0_2: - y[0,0,2] + y[0,0,3] + e[0,0,3] >= 0
 fire_spread_0_0_1_0_2: y[0,0,3] - y[1,0,2] + e[0,0,3] >= 0
 fire_spread_0_0_0_1_2: y[0,0,3] - y[0,1,2] + e[0,0,3] >= 0
 fire_ub_0_0_2: - y[0,0,2] + y[0,0,3] - y[0,1,2] - y[1,0,2] <= 0
 fire_persist_0_0_3: - y[0,0,3] + y[0,0,4] + e[0,0,4] >= 0
 fire_spread_0_0_1_0_3: y[0,0,4] - y[1,0,3] + e[0,0,4] >= 0
 fire_spread_0_0_0_1_3: y[0,0,4] - y[0,1,3] + e[0,0,4] >= 0
 fire_ub_0_0_3: - y[0,0,3] + y[0,0,4] - y[0,1,3] - y[1,0,3] <= 0
 fire_persist_0_0_4: - y[0,0,4] + y[0,0,5] + e[0,0,5] >= 0
 fire_spread_0_0_1_0_4: y[0,0,5] - y[1,0,4] + e[0,0,5] >= 0
 fire_spread_0_0_0_1_4: y[0,0,5] - y[0,1,4] + e[0,0,5] >= 0
 fire_ub_0_0_4: - y[0,0,4] + y[0,0,5] - y[0,1,4] - y[1,0,4] <= 0
 fire_persist_0_0_5: - y[0,0,5] + y[0,0,6] + e[0,0,6] >= 0
 fire_spread_0_0_1_0_5: y[0,0,6] - y[1,0,5] + e[0,0,6] >= 0
 fire_spread_0_0_0_1_5: y[0,0,6] - y[0,1,5] + e[0,0,6] >= 0
 fire_ub_0_0_5: - y[0,0,5] + y[0,0,6] - y[0,1,5] - y[1,0,5] <= 0
 fire_persist_0_0_6: - y[0,0,6] + y[0,0,7] + e[0,0,7] >= 0
 fire_spread_0_0_1_0_6: y[0,0,7] - y[1,0,6] + e[0,0,7] >= 0
 fire_spread_0_0_0_1_6: y[0,0,7] - y[0,1,6] + e[0,0,7] >= 0
 fire_ub_0_0_6: - y[0,0,6] + y[0,0,7] - y[0,1,6] - y[1,0,6] <= 0
 fire_persist_0_0_7: - y[0,0,7] + y[0,0,8] + e[0,0,8] >= 0
 fire_spread_0_0_1_0_7: y[0,0,8] - y[1,0,7] + e[0,0,8] >= 0
 fire_spread_0_0_0_1_7: y[0,0,8] - y[0,1,7] + e[0,0,8] >= 0
 fire_ub_0_0_7: - y[0,0,7] + y[0,0,8] - y[0,1,7] - y[1,0,7] <= 0
 fire_persist_0_0_8: - y[0,0,8] + y[0,0,9] + e[0,0,9] >= 0
 fire_spread_0_0_1_0_8: y[0,0,9] - y[1,0,8] + e[0,0,9] >= 0
 fire_spread_0_0_0_1_8: y[0,0,9] - y[0,1,8] + e[0,0,9] >= 0
 fire_ub_0_0_8: - y[0,0,8] + y[0,0,9] - y[0,1,8] - y[1,0,8] <= 0
 fire_persist_0_1_0: - y[0,1,0] + y[0,1,1] + e[0,1,1] >= 0
 fire_spread_0_1_1_1_0: y[0,1,1] - y[1,1,0] + e[0,1,1] >= 0
 fire_spread_0_1_0_0_0: - y[0,0,0] + y[0,1,1] + e[0,1,1] >= 0
 fire_spread_0_1_0_2_0: y[0,1,1] - y[0,2,0] + e[0,1,1] >= 0
 fire_ub_0_1_0: - y[0,0,0] - y[0,1,0] + y[0,1,1] - y[0,2,0] - y[1,1,0]
   <= 0
 fire_persist_0_1_1: - y[0,1,1] + y[0,1,2] + e[0,1,2] >= 0
 fire_spread_0_1_1_1_1: y[0,1,2] - y[1,1,1] + e[0,1,2] >= 0
 fire_spread_0_1_0_0_1: - y[0,0,1] + y[0,1,2] + e[0,1,2] >= 0
 fire_spread_0_1_0_2_1: y[0,1,2] - y[0,2,1] + e[0,1,2] >= 0
 fire_ub_0_1_1: - y[0,0,1] - y[0,1,1] + y[0,1,2] - y[0,2,1] - y[1,1,1]
   <= 0
 fire_persist_0_1_2: - y[0,1,2] + y[0,1,3] + e[0,1,3] >= 0
 fire_spread_0_1_1_1_2: y[0,1,3] - y[1,1,2] + e[0,1,3] >= 0
 fire_spread_0_1_0_0_2: - y[0,0,2] + y[0,1,3] + e[0,1,3] >= 0
 fire_spread_0_1_0_2_2: y[0,1,3] - y[0,2,2] + e[0,1,3] >= 0
 fire_ub_0_1_2: - y[0,0,2] - y[0,1,2] + y[0,1,3] - y[0,2,2] - y[1,1,2]
   <= 0
 fire_persist_0_1_3: - y[0,1,3] + y[0,1,4] + e[0,1,4] >= 0
 fire_spread_0_1_1_1_3: y[0,1,4] - y[1,1,3] + e[0,1,4] >= 0
 fire_spread_0_1_0_0_3: - y[0,0,3] + y[0,1,4] + e[0,1,4] >= 0
 fire_spread_0_1_0_2_3: y[0,1,4] - y[0,2,3] + e[0,1,4] >= 0
 fire_ub_0_1_3: - y[0,0,3] - y[0,1,3] + y[0,1,4] - y[0,2,3] - y[1,1,3]
   <= 0
 fire_persist_0_1_4: - y[0,1,4] + y[0,1,5] + e[0,1,5] >= 0
 fire_spread_0_1_1_1_4: y[0,1,5] - y[1,1,4] + e[0,1,5] >= 0
 fire_spread_0_1_0_0_4: - y[0,0,4] + y[0,1,5] + e[0,1,5] >= 0
 fire_spread_0_1_0_2_4: y[0,1,5] - y[0,2,4] + e[0,1,5] >= 0
 fire_ub_0_1_4: - y[0,0,4] - y[0,1,4] + y[0,1,5] - y[0,2,4] - y[1,1,4]
   <= 0
 fire_persist_0_1_5: - y[0,1,5] + y[0,1,6] + e[0,1,6] >= 0
 fire_spread_0_1_1_1_5: y[0,1,6] - y[1,1,5] + e[0,1,6] >= 0
 fire_spread_0_1_0_0_5: - y[0,0,5] + y[0,1,6] + e[0,1,6] >= 0
 fire_spread_0_1_0_2_5: y[0,1,6] - y[0,2,5] + e[0,1,6] >= 0
 fire_ub_0_1_5: - y[0,0,5] - y[0,1,5] + y[0,1,6] - y[0,2,5] - y[1,1,5]
   <= 0
 fire_persist_0_1_6: - y[0,1,6] + y[0,1,7] + e[0,1,7] >= 0
 fire_spread_0_1_1_1_6: y[0,1,7] - y[1,1,6] + e[0,1,7] >= 0
 fire_spread_0_1_0_0_6: - y[0,0,6] + y[0,1,7] + e[0,1,7] >= 0
 fire_spread_0_1_0_2_6: y[0,1,7] - y[0,2,6] + e[0,1,7] >= 0
 fire_ub_0_1_6: - y[0,0,6] - y[0,1,6] + y[0,1,7] - y[0,2,6] - y[1,1,6]
   <= 0
 fire_persist_0_1_7: - y[0,1,7] + y[0,1,8] + e[0,1,8] >= 0
 fire_spread_0_1_1_1_7: y[0,1,8] - y[1,1,7] + e[0,1,8] >= 0
 fire_spread_0_1_0_0_7: - y[0,0,7] + y[0,1,8] + e[0,1,8] >= 0
 fire_spread_0_1_0_2_7: y[0,1,8] - y[0,2,7] + e[0,1,8] >= 0
 fire_ub_0_1_7: - y[0,0,7] - y[0,1,7] + y[0,1,8] - y[0,2,7] - y[1,1,7]
   <= 0
 fire_persist_0_1_8: - y[0,1,8] + y[0,1,9] + e[0,1,9] >= 0
 fire_spread_0_1_1_1_8: y[0,1,9] - y[1,1,8] + e[0,1,9] >= 0
 fire_spread_0_1_0_0_8: - y[0,0,8] + y[0,1,9] + e[0,1,9] >= 0
 fire_spread_0_1_0_2_8: y[0,1,9] - y[0,2,8] + e[0,1,9] >= 0
 fire_ub_0_1_8: - y[0,0,8] - y[0,1,8] + y[0,1,9] - y[0,2,8] - y[1,1,8]
   <= 0
 fire_persist_0_2_0: - y[0,2,0] + y[0,2,1] + e[0,2,1] >= 0
 fire_spread_0_2_1_2_0: y[0,2,1] - y[1,2,0] + e[0,2,1] >= 0
 fire_spread_0_2_0_1_0: - y[0,1,0] + y[0,2,1] + e[0,2,1] >= 0
 fire_spread_0_2_0_3_0: y[0,2,1] - y[0,3,0] + e[0,2,1] >= 0
 fire_ub_0_2_0: - y[0,1,0] - y[0,2,0] + y[0,2,1] - y[0,3,0] - y[1,2,0]
   <= 0
 fire_persist_0_2_1: - y[0,2,1] + y[0,2,2] + e[0,2,2] >= 0
 fire_spread_0_2_1_2_1: y[0,2,2] - y[1,2,1] + e[0,2,2] >= 0
 fire_spread_0_2_0_1_1: - y[0,1,1] + y[0,2,2] + e[0,2,2] >= 0
 fire_spread_0_2_0_3_1: y[0,2,2] - y[0,3,1] + e[0,2,2] >= 0
 fire_ub_0_2_1: - y[0,1,1] - y[0,2,1] + y[0,2,2] - y[0,3,1] - y[1,2,1]
   <= 0
 fire_persist_0_2_2: - y[0,2,2] + y[0,2,3] + e[0,2,3] >= 0
 fire_spread_0_2_1_2_2: y[0,2,3] - y[1,2,2] + e[0,2,3] >= 0
 fire_spread_0_2_0_1_2: - y[0,1,2] + y[0,2,3] + e[0,2,3] >= 0
 fire_spread_0_2_0_3_2: y[0,2,3] - y[0,3,2] + e[0,2,3] >= 0
 fire_ub_0_2_2: - y[0,1,2] - y[0,2,2] + y[0,2,3] - y[0,3,2] - y[1,2,2]
   <= 0
 fire_persist_0_2_3: - y[0,2,3] + y[0,2,4] + e[0,2,4] >= 0
 fire_spread_0_2_1_2_3: y[0,2,4] - y[1,2,3] + e[0,2,4] >= 0
 fire_spread_0_2_0_1_3: - y[0,1,3] + y[0,2,4] + e[0,2,4] >= 0
 fire_spread_0_2_0_3_3: y[0,2,4] - y[0,3,3] + e[0,2,4] >= 0
 fire_ub_0_2_3: - y[0,1,3] - y[0,2,3] + y[0,2,4] - y[0,3,3] - y[1,2,3]
   <= 0
 fire_persist_0_2_4: - y[0,2,4] + y[0,2,5] + e[0,2,5] >= 0
 fire_spread_0_2_1_2_4: y[0,2,5] - y[1,2,4] + e[0,2,5] >= 0
 fire_spread_0_2_0_1_4: - y[0,1,4] + y[0,2,5] + e[0,2,5] >= 0
 fire_spread_0_2_0_3_4: y[0,2,5] - y[0,3,4] + e[0,2,5] >= 0
 fire_ub_0_2_4: - y[0,1,4] - y[0,2,4] + y[0,2,5] - y[0,3,4] - y[1,2,4]
   <= 0
 fire_persist_0_2_5: - y[0,2,5] + y[0,2,6] + e[0,2,6] >= 0
 fire_spread_0_2_1_2_5: y[0,2,6] - y[1,2,5] + e[0,2,6] >= 0
 fire_spread_0_2_0_1_5: - y[0,1,5] + y[0,2,6] + e[0,2,6] >= 0
 fire_spread_0_2_0_3_5: y[0,2,6] - y[0,3,5] + e[0,2,6] >= 0
 fire_ub_0_2_5: - y[0,1,5] - y[0,2,5] + y[0,2,6] - y[0,3,5] - y[1,2,5]
   <= 0
 fire_persist_0_2_6: - y[0,2,6] + y[0,2,7] + e[0,2,7] >= 0
 fire_spread_0_2_1_2_6: y[0,2,7] - y[1,2,6] + e[0,2,7] >= 0
 fire_spread_0_2_0_1_6: - y[0,1,6] + y[0,2,7] + e[0,2,7] >= 0
 fire_spread_0_2_0_3_6: y[0,2,7] - y[0,3,6] + e[0,2,7] >= 0
 fire_ub_0_2_6: - y[0,1,6] - y[0,2,6] + y[0,2,7] - y[0,3,6] - y[1,2,6]
   <= 0
 fire_persist_0_2_7: - y[0,2,7] + y[0,2,8] + e[0,2,8] >= 0
 fire_spread_0_2_1_2_7: y[0,2,8] - y[1,2,7] + e[0,2,8] >= 0
 fire_spread_0_2_0_1_7: - y[0,1,7] + y[0,2,8] + e[0,2,8] >= 0
 fire_spread_0_2_0_3_7: y[0,2,8] - y[0,3,7] + e[0,2,8] >= 0
 fire_ub_0_2_7: - y[0,1,7] - y[0,2,7] + y[0,2,8] - y[0,3,7] - y[1,2,7]
   <= 0
 fire_persist_0_2_8: - y[0,2,8] + y[0,2,9] + e[0,2,9] >= 0
 fire_spread_0_2_1_2_8: y[0,2,9] - y[1,2,8] + e[0,2,9] >= 0
 fire_spread_0_2_0_1_8: - y[0,1,8] + y[0,2,9] + e[0,2,9] >= 0
 fire_spread_0_2_0_3_8: y[0,2,9] - y[0,3,8] + e[0,2,9] >= 0
 fire_ub_0_2_8: - y[0,1,8] - y[0,2,8] + y[0,2,9] - y[0,3,8] - y[1,2,8]
   <= 0
 fire_persist_0_3_0: - y[0,3,0] + y[0,3,1] + e[0,3,1] >= 0
 fire_spread_0_3_1_3_0: y[0,3,1] - y[1,3,0] + e[0,3,1] >= 0
 fire_spread_0_3_0_2_0: - y[0,2,0] + y[0,3,1] + e[0,3,1] >= 0
 fire_spread_0_3_0_4_0: y[0,3,1] - y[0,4,0] + e[0,3,1] >= 0
 fire_ub_0_3_0: - y[0,2,0] - y[0,3,0] + y[0,3,1] - y[0,4,0] - y[1,3,0]
   <= 0
 fire_persist_0_3_1: - y[0,3,1] + y[0,3,2] + e[0,3,2] >= 0
 fire_spread_0_3_1_3_1: y[0,3,2] - y[1,3,1] + e[0,3,2] >= 0
 fire_spread_0_3_0_2_1: - y[0,2,1] + y[0,3,2] + e[0,3,2] >= 0
 fire_spread_0_3_0_4_1: y[0,3,2] - y[0,4,1] + e[0,3,2] >= 0
 fire_ub_0_3_1: - y[0,2,1] - y[0,3,1] + y[0,3,2] - y[0,4,1] - y[1,3,1]
   <= 0
 fire_persist_0_3_2: - y[0,3,2] + y[0,3,3] + e[0,3,3] >= 0
 fire_spread_0_3_1_3_2: y[0,3,3] - y[1,3,2] + e[0,3,3] >= 0
 fire_spread_0_3_0_2_2: - y[0,2,2] + y[0,3,3] + e[0,3,3] >= 0
 fire_spread_0_3_0_4_2: y[0,3,3] - y[0,4,2] + e[0,3,3] >= 0
 fire_ub_0_3_2: - y[0,2,2] - y[0,3,2] + y[0,3,3] - y[0,4,2] - y[1,3,2]
   <= 0
 fire_persist_0_3_3: - y[0,3,3] + y[0,3,4] + e[0,3,4] >= 0
 fire_spread_0_3_1_3_3: y[0,3,4] - y[1,3,3] + e[0,3,4] >= 0
 fire_spread_0_3_0_2_3: - y[0,2,3] + y[0,3,4] + e[0,3,4] >= 0
 fire_spread_0_3_0_4_3: y[0,3,4] - y[0,4,3] + e[0,3,4] >= 0
 fire_ub_0_3_3: - y[0,2,3] - y[0,3,3] + y[0,3,4] - y[0,4,3] - y[1,3,3]
   <= 0
 fire_persist_0_3_4: - y[0,3,4] + y[0,3,5] + e[0,3,5] >= 0
 fire_spread_0_3_1_3_4: y[0,3,5] - y[1,3,4] + e[0,3,5] >= 0
 fire_spread_0_3_0_2_4: - y[0,2,4] + y[0,3,5] + e[0,3,5] >= 0
 fire_spread_0_3_0_4_4: y[0,3,5] - y[0,4,4] + e[0,3,5] >= 0
 fire_ub_0_3_4: - y[0,2,4] - y[0,3,4] + y[0,3,5] - y[0,4,4] - y[1,3,4]
   <= 0
 fire_persist_0_3_5: - y[0,3,5] + y[0,3,6] + e[0,3,6] >= 0
 fire_spread_0_3_1_3_5: y[0,3,6] - y[1,3,5] + e[0,3,6] >= 0
 fire_spread_0_3_0_2_5: - y[0,2,5] + y[0,3,6] + e[0,3,6] >= 0
 fire_spread_0_3_0_4_5: y[0,3,6] - y[0,4,5] + e[0,3,6] >= 0
 fire_ub_0_3_5: - y[0,2,5] - y[0,3,5] + y[0,3,6] - y[0,4,5] - y[1,3,5]
   <= 0
 fire_persist_0_3_6: - y[0,3,6] + y[0,3,7] + e[0,3,7] >= 0
 fire_spread_0_3_1_3_6: y[0,3,7] - y[1,3,6] + e[0,3,7] >= 0
 fire_spread_0_3_0_2_6: - y[0,2,6] + y[0,3,7] + e[0,3,7] >= 0
 fire_spread_0_3_0_4_6: y[0,3,7] - y[0,4,6] + e[0,3,7] >= 0
 fire_ub_0_3_6: - y[0,2,6] - y[0,3,6] + y[0,3,7] - y[0,4,6] - y[1,3,6]
   <= 0
 fire_persist_0_3_7: - y[0,3,7] + y[0,3,8] + e[0,3,8] >= 0
 fire_spread_0_3_1_3_7: y[0,3,8] - y[1,3,7] + e[0,3,8] >= 0
 fire_spread_0_3_0_2_7: - y[0,2,7] + y[0,3,8] + e[0,3,8] >= 0
 fire_spread_0_3_0_4_7: y[0,3,8] - y[0,4,7] + e[0,3,8] >= 0
 fire_ub_0_3_7: - y[0,2,7] - y[0,3,7] + y[0,3,8] - y[0,4,7] - y[1,3,7]
   <= 0
 fire_persist_0_3_8: - y[0,3,8] + y[0,3,9] + e[0,3,9] >= 0
 fire_spread_0_3_1_3_8: y[0,3,9] - y[1,3,8] + e[0,3,9] >= 0
 fire_spread_0_3_0_2_8: - y[0,2,8] + y[0,3,9] + e[0,3,9] >= 0
 fire_spread_0_3_0_4_8: y[0,3,9] - y[0,4,8] + e[0,3,9] >= 0
 fire_ub_0_3_8: - y[0,2,8] - y[0,3,8] + y[0,3,9] - y[0,4,8] - y[1,3,8]
   <= 0
 fire_persist_0_4_0: - y[0,4,0] + y[0,4,1] + e[0,4,1] >= 0
 fire_spread_0_4_1_4_0: y[0,4,1] - y[1,4,0] + e[0,4,1] >= 0
 fire_spread_0_4_0_3_0: - y[0,3,0] + y[0,4,1] + e[0,4,1] >= 0
 fire_ub_0_4_0: - y[0,3,0] - y[0,4,0] + y[0,4,1] - y[1,4,0] <= 0
 fire_persist_0_4_1: - y[0,4,1] + y[0,4,2] + e[0,4,2] >= 0
 fire_spread_0_4_1_4_1: y[0,4,2] - y[1,4,1] + e[0,4,2] >= 0
 fire_spread_0_4_0_3_1: - y[0,3,1] + y[0,4,2] + e[0,4,2] >= 0
 fire_ub_0_4_1: - y[0,3,1] - y[0,4,1] + y[0,4,2] - y[1,4,1] <= 0
 fire_persist_0_4_2: - y[0,4,2] + y[0,4,3] + e[0,4,3] >= 0
 fire_spread_0_4_1_4_2: y[0,4,3] - y[1,4,2] + e[0,4,3] >= 0
 fire_spread_0_4_0_3_2: - y[0,3,2] + y[0,4,3] + e[0,4,3] >= 0
 fire_ub_0_4_2: - y[0,3,2] - y[0,4,2] + y[0,4,3] - y[1,4,2] <= 0
 fire_persist_0_4_3: - y[0,4,3] + y[0,4,4] + e[0,4,4] >= 0
 fire_spread_0_4_1_4_3: y[0,4,4] - y[1,4,3] + e[0,4,4] >= 0
 fire_spread_0_4_0_3_3: - y[0,3,3] + y[0,4,4] + e[0,4,4] >= 0
 fire_ub_0_4_3: - y[0,3,3] - y[0,4,3] + y[0,4,4] - y[1,4,3] <= 0
 fire_persist_0_4_4: - y[0,4,4] + y[0,4,5] + e[0,4,5] >= 0
 fire_spread_0_4_1_4_4: y[0,4,5] - y[1,4,4] + e[0,4,5] >= 0
 fire_spread_0_4_0_3_4: - y[0,3,4] + y[0,4,5] + e[0,4,5] >= 0
 fire_ub_0_4_4: - y[0,3,4] - y[0,4,4] + y[0,4,5] - y[1,4,4] <= 0
 fire_persist_0_4_5: - y[0,4,5] + y[0,4,6] + e[0,4,6] >= 0
 fire_spread_0_4_1_4_5: y[0,4,6] - y[1,4,5] + e[0,4,6] >= 0
 fire_spread_0_4_0_3_5: - y[0,3,5] + y[0,4,6] + e[0,4,6] >= 0
 fire_ub_0_4_5: - y[0,3,5] - y[0,4,5] + y[0,4,6] - y[1,4,5] <= 0
 fire_persist_0_4_6: - y[0,4,6] + y[0,4,7] + e[0,4,7] >= 0
 fire_spread_0_4_1_4_6: y[0,4,7] - y[1,4,6] + e[0,4,7] >= 0
 fire_spread_0_4_0_3_6: - y[0,3,6] + y[0,4,7] + e[0,4,7] >= 0
 fire_ub_0_4_6: - y[0,3,6] - y[0,4,6] + y[0,4,7] - y[1,4,6] <= 0
 fire_persist_0_4_7: - y[0,4,7] + y[0,4,8] + e[0,4,8] >= 0
 fire_spread_0_4_1_4_7: y[0,4,8] - y[1,4,7] + e[0,4,8] >= 0
 fire_spread_0_4_0_3_7: - y[0,3,7] + y[0,4,8] + e[0,4,8] >= 0
 fire_ub_0_4_7: - y[0,3,7] - y[0,4,7] + y[0,4,8] - y[1,4,7] <= 0
 fire_persist_0_4_8: - y[0,4,8] + y[0,4,9] + e[0,4,9] >= 0
 fire_spread_0_4_1_4_8: y[0,4,9] - y[1,4,8] + e[0,4,9] >= 0
 fire_spread_0_4_0_3_8: - y[0,3,8] + y[0,4,9] + e[0,4,9] >= 0
 fire_ub_0_4_8: - y[0,3,8] - y[0,4,8] + y[0,4,9] - y[1,4,8] <= 0
 fire_persist_1_0_0: - y[1,0,0] + y[1,0,1] + e[1,0,1] >= 0
 fire_spread_1_0_0_0_0: - y[0,0,0] + y[1,0,1] + e[1,0,1] >= 0
 fire_spread_1_0_2_0_0: y[1,0,1] - y[2,0,0] + e[1,0,1] >= 0
 fire_spread_1_0_1_1_0: y[1,0,1] - y[1,1,0] + e[1,0,1] >= 0
 fire_ub_1_0_0: - y[0,0,0] - y[1,0,0] + y[1,0,1] - y[1,1,0] - y[2,0,0]
   <= 0
 fire_persist_1_0_1: - y[1,0,1] + y[1,0,2] + e[1,0,2] >= 0
 fire_spread_1_0_0_0_1: - y[0,0,1] + y[1,0,2] + e[1,0,2] >= 0
 fire_spread_1_0_2_0_1: y[1,0,2] - y[2,0,1] + e[1,0,2] >= 0
 fire_spread_1_0_1_1_1: y[1,0,2] - y[1,1,1] + e[1,0,2] >= 0
 fire_ub_1_0_1: - y[0,0,1] - y[1,0,1] + y[1,0,2] - y[1,1,1] - y[2,0,1]
   <= 0
 fire_persist_1_0_2: - y[1,0,2] + y[1,0,3] + e[1,0,3] >= 0
 fire_spread_1_0_0_0_2: - y[0,0,2] + y[1,0,3] + e[1,0,3] >= 0
 fire_spread_1_0_2_0_2: y[1,0,3] - y[2,0,2] + e[1,0,3] >= 0
 fire_spread_1_0_1_1_2: y[1,0,3] - y[1,1,2] + e[1,0,3] >= 0
 fire_ub_1_0_2: - y[0,0,2] - y[1,0,2] + y[1,0,3] - y[1,1,2] - y[2,0,2]
   <= 0
 fire_persist_1_0_3: - y[1,0,3] + y[1,0,4] + e[1,0,4] >= 0
 fire_spread_1_0_0_0_3: - y[0,0,3] + y[1,0,4] + e[1,0,4] >= 0
 fire_spread_1_0_2_0_3: y[1,0,4] - y[2,0,3] + e[1,0,4] >= 0
 fire_spread_1_0_1_1_3: y[1,0,4] - y[1,1,3] + e[1,0,4] >= 0
 fire_ub_1_0_3: - y[0,0,3] - y[1,0,3] + y[1,0,4] - y[1,1,3] - y[2,0,3]
   <= 0
 fire_persist_1_0_4: - y[1,0,4] + y[1,0,5] + e[1,0,5] >= 0
 fire_spread_1_0_0_0_4: - y[0,0,4] + y[1,0,5] + e[1,0,5] >= 0
 fire_spread_1_0_2_0_4: y[1,0,5] - y[2,0,4] + e[1,0,5] >= 0
 fire_spread_1_0_1_1_4: y[1,0,5] - y[1,1,4] + e[1,0,5] >= 0
 fire_ub_1_0_4: - y[0,0,4] - y[1,0,4] + y[1,0,5] - y[1,1,4] - y[2,0,4]
   <= 0
 fire_persist_1_0_5: - y[1,0,5] + y[1,0,6] + e[1,0,6] >= 0
 fire_spread_1_0_0_0_5: - y[0,0,5] + y[1,0,6] + e[1,0,6] >= 0
 fire_spread_1_0_2_0_5: y[1,0,6] - y[2,0,5] + e[1,0,6] >= 0
 fire_spread_1_0_1_1_5: y[1,0,6] - y[1,1,5] + e[1,0,6] >= 0
 fire_ub_1_0_5: - y[0,0,5] - y[1,0,5] + y[1,0,6] - y[1,1,5] - y[2,0,5]
   <= 0
 fire_persist_1_0_6: - y[1,0,6] + y[1,0,7] + e[1,0,7] >= 0
 fire_spread_1_0_0_0_6: - y[0,0,6] + y[1,0,7] + e[1,0,7] >= 0
 fire_spread_1_0_2_0_6: y[1,0,7] - y[2,0,6] + e[1,0,7] >= 0
 fire_spread_1_0_1_1_6: y[1,0,7] - y[1,1,6] + e[1,0,7] >= 0
 fire_ub_1_0_6: - y[0,0,6] - y[1,0,6] + y[1,0,7] - y[1,1,6] - y[2,0,6]
   <= 0
 fire_persist_1_0_7: - y[1,0,7] + y[1,0,8] + e[1,0,8] >= 0
 fire_spread_1_0_0_0_7: - y[0,0,7] + y[1,0,8] + e[1,0,8] >= 0
 fire_spread_1_0_2_0_7: y[1,0,8] - y[2,0,7] + e[1,0,8] >= 0
 fire_spread_1_0_1_1_7: y[1,0,8] - y[1,1,7] + e[1,0,8] >= 0
 fire_ub_1_0_7: - y[0,0,7] - y[1,0,7] + y[1,0,8] - y[1,1,7] - y[2,0,7]
   <= 0
 fire_persist_1_0_8: - y[1,0,8] + y[1,0,9] + e[1,0,9] >= 0
 fire_spread_1_0_0_0_8: - y[0,0,8] + y[1,0,9] + e[1,0,9] >= 0
 fire_spread_1_0_2_0_8: y[1,0,9] - y[2,0,8] + e[1,0,9] >= 0
 fire_spread_1_0_1_1_8: y[1,0,9] - y[1,1,8] + e[1,0,9] >= 0
 fire_ub_1_0_8: - y[0,0,8] - y[1,0,8] + y[1,0,9] - y[1,1,8] - y[2,0,8]
   <= 0
 fire_persist_1_1_0: - y[1,1,0] + y[1,1,1] + e[1,1,1] >= 0
 fire_spread_1_1_0_1_0: - y[0,1,0] + y[1,1,1] + e[1,1,1] >= 0
 fire_spread_1_1_2_1_0: y[1,1,1] - y[2,1,0] + e[1,1,1] >= 0
 fire_spread_1_1_1_0_0: - y[1,0,0] + y[1,1,1] + e[1,1,1] >= 0
 fire_spread_1_1_1_2_0: y[1,1,1] - y[1,2,0] + e[1,1,1] >= 0
 fire_ub_1_1_0: - y[0,1,0] - y[1,0,0] - y[1,1,0] + y[1,1,1] - y[1,2,0]
   - y[2,1,0] <= 0
 fire_persist_1_1_1: - y[1,1,1] + y[1,1,2] + e[1,1,2] >= 0
 fire_spread_1_1_0_1_1: - y[0,1,1] + y[1,1,2] + e[1,1,2] >= 0
 fire_spread_1_1_2_1_1: y[1,1,2] - y[2,1,1] + e[1,1,2] >= 0
 fire_spread_1_1_1_0_1: - y[1,0,1] + y[1,1,2] + e[1,1,2] >= 0
 fire_spread_1_1_1_2_1: y[1,1,2] - y[1,2,1] + e[1,1,2] >= 0
 fire_ub_1_1_1: - y[0,1,1] - y[1,0,1] - y[1,1,1] + y[1,1,2] - y[1,2,1]
   - y[2,1,1] <= 0
 fire_persist_1_1_2: - y[1,1,2] + y[1,1,3] + e[1,1,3] >= 0
 fire_spread_1_1_0_1_2: - y[0,1,2] + y[1,1,3] + e[1,1,3] >= 0
 fire_spread_1_1_2_1_2: y[1,1,3] - y[2,1,2] + e[1,1,3] >= 0
 fire_spread_1_1_1_0_2: - y[1,0,2] + y[1,1,3] + e[1,1,3] >= 0
 fire_spread_1_1_1_2_2: y[1,1,3] - y[1,2,2] + e[1,1,3] >= 0
 fire_ub_1_1_2: - y[0,1,2] - y[1,0,2] - y[1,1,2] + y[1,1,3] - y[1,2,2]
   - y[2,1,2] <= 0
 fire_persist_1_1_3: - y[1,1,3] + y[1,1,4] + e[1,1,4] >= 0
 fire_spread_1_1_0_1_3: - y[0,1,3] + y[1,1,4] + e[1,1,4] >= 0
 fire_spread_1_1_2_1_3: y[1,1,4] - y[2,1,3] + e[1,1,4] >= 0
 fire_spread_1_1_1_0_3: - y[1,0,3] + y[1,1,4] + e[1,1,4] >= 0
 fire_spread_1_1_1_2_3: y[1,1,4] - y[1,2,3] + e[1,1,4] >= 0
 fire_ub_1_1_3: - y[0,1,3] - y[1,0,3] - y[1,1,3] + y[1,1,4] - y[1,2,3]
   - y[2,1,3] <= 0
 fire_persist_1_1_4: - y[1,1,4] + y[1,1,5] + e[1,1,5] >= 0
 fire_spread_1_1_0_1_4: - y[0,1,4] + y[1,1,5] + e[1,1,5] >= 0
 fire_spread_1_1_2_1_4: y[1,1,5] - y[2,1,4] + e[1,1,5] >= 0
 fire_spread_1_1_1_0_4: - y[1,0,4] + y[1,1,5] + e[1,1,5] >= 0
 fire_spread_1_1_1_2_4: y[1,1,5] - y[1,2,4] + e[1,1,5] >= 0
 fire_ub_1_1_4: - y[0,1,4] - y[1,0,4] - y[1,1,4] + y[1,1,5] - y[1,2,4]
   - y[2,1,4] <= 0
 fire_persist_1_1_5: - y[1,1,5] + y[1,1,6] + e[1,1,6] >= 0
 fire_spread_1_1_0_1_5: - y[0,1,5] + y[1,1,6] + e[1,1,6] >= 0
 fire_spread_1_1_2_1_5: y[1,1,6] - y[2,1,5] + e[1,1,6] >= 0
 fire_spread_1_1_1_0_5: - y[1,0,5] + y[1,1,6] + e[1,1,6] >= 0
 fire_spread_1_1_1_2_5: y[1,1,6] - y[1,2,5] + e[1,1,6] >= 0
 fire_ub_1_1_5: - y[0,1,5] - y[1,0,5] - y[1,1,5] + y[1,1,6] - y[1,2,5]
   - y[2,1,5] <= 0
 fire_persist_1_1_6: - y[1,1,6] + y[1,1,7] + e[1,1,7] >= 0
 fire_spread_1_1_0_1_6: - y[0,1,6] + y[1,1,7] + e[1,1,7] >= 0
 fire_spread_1_1_2_1_6: y[1,1,7] - y[2,1,6] + e[1,1,7] >= 0
 fire_spread_1_1_1_0_6: - y[1,0,6] + y[1,1,7] + e[1,1,7] >= 0
 fire_spread_1_1_1_2_6: y[1,1,7] - y[1,2,6] + e[1,1,7] >= 0
 fire_ub_1_1_6: - y[0,1,6] - y[1,0,6] - y[1,1,6] + y[1,1,7] - y[1,2,6]
   - y[2,1,6] <= 0
 fire_persist_1_1_7: - y[1,1,7] + y[1,1,8] + e[1,1,8] >= 0
 fire_spread_1_1_0_1_7: - y[0,1,7] + y[1,1,8] + e[1,1,8] >= 0
 fire_spread_1_1_2_1_7: y[1,1,8] - y[2,1,7] + e[1,1,8] >= 0
 fire_spread_1_1_1_0_7: - y[1,0,7] + y[1,1,8] + e[1,1,8] >= 0
 fire_spread_1_1_1_2_7: y[1,1,8] - y[1,2,7] + e[1,1,8] >= 0
 fire_ub_1_1_7: - y[0,1,7] - y[1,0,7] - y[1,1,7] + y[1,1,8] - y[1,2,7]
   - y[2,1,7] <= 0
 fire_persist_1_1_8: - y[1,1,8] + y[1,1,9] + e[1,1,9] >= 0
 fire_spread_1_1_0_1_8: - y[0,1,8] + y[1,1,9] + e[1,1,9] >= 0
 fire_spread_1_1_2_1_8: y[1,1,9] - y[2,1,8] + e[1,1,9] >= 0
 fire_spread_1_1_1_0_8: - y[1,0,8] + y[1,1,9] + e[1,1,9] >= 0
 fire_spread_1_1_1_2_8: y[1,1,9] - y[1,2,8] + e[1,1,9] >= 0
 fire_ub_1_1_8: - y[0,1,8] - y[1,0,8] - y[1,1,8] + y[1,1,9] - y[1,2,8]
   - y[2,1,8] <= 0
 fire_persist_1_2_0: - y[1,2,0] + y[1,2,1] + e[1,2,1] >= 0
 fire_spread_1_2_0_2_0: - y[0,2,0] + y[1,2,1] + e[1,2,1] >= 0
 fire_spread_1_2_2_2_0: y[1,2,1] - y[2,2,0] + e[1,2,1] >= 0
 fire_spread_1_2_1_1_0: - y[1,1,0] + y[1,2,1] + e[1,2,1] >= 0
 fire_spread_1_2_1_3_0: y[1,2,1] - y[1,3,0] + e[1,2,1] >= 0
 fire_ub_1_2_0: - y[0,2,0] - y[1,1,0] - y[1,2,0] + y[1,2,1] - y[1,3,0]
   - y[2,2,0] <= 0
 fire_persist_1_2_1: - y[1,2,1] + y[1,2,2] + e[1,2,2] >= 0
 fire_spread_1_2_0_2_1: - y[0,2,1] + y[1,2,2] + e[1,2,2] >= 0
 fire_spread_1_2_2_2_1: y[1,2,2] - y[2,2,1] + e[1,2,2] >= 0
 fire_spread_1_2_1_1_1: - y[1,1,1] + y[1,2,2] + e[1,2,2] >= 0
 fire_spread_1_2_1_3_1: y[1,2,2] - y[1,3,1] + e[1,2,2] >= 0
 fire_ub_1_2_1: - y[0,2,1] - y[1,1,1] - y[1,2,1] + y[1,2,2] - y[1,3,1]
   - y[2,2,1] <= 0
 fire_persist_1_2_2: - y[1,2,2] + y[1,2,3] + e[1,2,3] >= 0
 fire_spread_1_2_0_2_2: - y[0,2,2] + y[1,2,3] + e[1,2,3] >= 0
 fire_spread_1_2_2_2_2: y[1,2,3] - y[2,2,2] + e[1,2,3] >= 0
 fire_spread_1_2_1_1_2: - y[1,1,2] + y[1,2,3] + e[1,2,3] >= 0
 fire_spread_1_2_1_3_2: y[1,2,3] - y[1,3,2] + e[1,2,3] >= 0
 fire_ub_1_2_2: - y[0,2,2] - y[1,1,2] - y[1,2,2] + y[1,2,3] - y[1,3,2]
   - y[2,2,2] <= 0
 fire_persist_1_2_3: - y[1,2,3] + y[1,2,4] + e[1,2,4] >= 0
 fire_spread_1_2_0_2_3: - y[0,2,3] + y[1,2,4] + e[1,2,4] >= 0
 fire_spread_1_2_2_2_3: y[1,2,4] - y[2,2,3] + e[1,2,4] >= 0
 fire_spread_1_2_1_1_3: - y[1,1,3] + y[1,2,4] + e[1,2,4] >= 0
 fire_spread_1_2_1_3_3: y[1,2,4] - y[1,3,3] + e[1,2,4] >= 0
 fire_ub_1_2_3: - y[0,2,3] - y[1,1,3] - y[1,2,3] + y[1,2,4] - y[1,3,3]
   - y[2,2,3] <= 0
 fire_persist_1_2_4: - y[1,2,4] + y[1,2,5] + e[1,2,5] >= 0
 fire_spread_1_2_0_2_4: - y[0,2,4] + y[1,2,5] + e[1,2,5] >= 0
 fire_spread_1_2_2_2_4: y[1,2,5] - y[2,2,4] + e[1,2,5] >= 0
 fire_spread_1_2_1_1_4: - y[1,1,4] + y[1,2,5] + e[1,2,5] >= 0
 fire_spread_1_2_1_3_4: y[1,2,5] - y[1,3,4] + e[1,2,5] >= 0
 fire_ub_1_2_4: - y[0,2,4] - y[1,1,4] - y[1,2,4] + y[1,2,5] - y[1,3,4]
   - y[2,2,4] <= 0
 fire_persist_1_2_5: - y[1,2,5] + y[1,2,6] + e[1,2,6] >= 0
 fire_spread_1_2_0_2_5: - y[0,2,5] + y[1,2,6] + e[1,2,6] >= 0
 fire_spread_1_2_2_2_5: y[1,2,6] - y[2,2,5] + e[1,2,6] >= 0
 fire_spread_1_2_1_1_5: - y[1,1,5] + y[1,2,6] + e[1,2,6] >= 0
 fire_spread_1_2_1_3_5: y[1,2,6] - y[1,3,5] + e[1,2,6] >= 0
 fire_ub_1_2_5: - y[0,2,5] - y[1,1,5] - y[1,2,5] + y[1,2,6] - y[1,3,5]
   - y[2,2,5] <= 0
 fire_persist_1_2_6: - y[1,2,6] + y[1,2,7] + e[1,2,7] >= 0
 fire_spread_1_2_0_2_6: - y[0,2,6] + y[1,2,7] + e[1,2,7] >= 0
 fire_spread_1_2_2_2_6: y[1,2,7] - y[2,2,6] + e[1,2,7] >= 0
 fire_spread_1_2_1_1_6: - y[1,1,6] + y[1,2,7] + e[1,2,7] >= 0
 fire_spread_1_2_1_3_6: y[1,2,7] - y[1,3,6] + e[1,2,7] >= 0
 fire_ub_1_2_6: - y[0,2,6] - y[1,1,6] - y[1,2,6] + y[1,2,7] - y[1,3,6]
   - y[2,2,6] <= 0
 fire_persist_1_2_7: - y[1,2,7] + y[1,2,8] + e[1,2,8] >= 0
 fire_spread_1_2_0_2_7: - y[0,2,7] + y[1,2,8] + e[1,2,8] >= 0
 fire_spread_1_2_2_2_7: y[1,2,8] - y[2,2,7] + e[1,2,8] >= 0
 fire_spread_1_2_1_1_7: - y[1,1,7] + y[1,2,8] + e[1,2,8] >= 0
 fire_spread_1_2_1_3_7: y[1,2,8] - y[1,3,7] + e[1,2,8] >= 0
 fire_ub_1_2_7: - y[0,2,7] - y[1,1,7] - y[1,2,7] + y[1,2,8] - y[1,3,7]
   - y[2,2,7] <= 0
 fire_persist_1_2_8: - y[1,2,8] + y[1,2,9] + e[1,2,9] >= 0
 fire_spread_1_2_0_2_8: - y[0,2,8] + y[1,2,9] + e[1,2,9] >= 0
 fire_spread_1_2_2_2_8: y[1,2,9] - y[2,2,8] + e[1,2,9] >= 0
 fire_spread_1_2_1_1_8: - y[1,1,8] + y[1,2,9] + e[1,2,9] >= 0
 fire_spread_1_2_1_3_8: y[1,2,9] - y[1,3,8] + e[1,2,9] >= 0
 fire_ub_1_2_8: - y[0,2,8] - y[1,1,8] - y[1,2,8] + y[1,2,9] - y[1,3,8]
   - y[2,2,8] <= 0
 fire_persist_1_3_0: - y[1,3,0] + y[1,3,1] + e[1,3,1] >= 0
 fire_spread_1_3_0_3_0: - y[0,3,0] + y[1,3,1] + e[1,3,1] >= 0
 fire_spread_1_3_2_3_0: y[1,3,1] - y[2,3,0] + e[1,3,1] >= 0
 fire_spread_1_3_1_2_0: - y[1,2,0] + y[1,3,1] + e[1,3,1] >= 0
 fire_spread_1_3_1_4_0: y[1,3,1] - y[1,4,0] + e[1,3,1] >= 0
 fire_ub_1_3_0: - y[0,3,0] - y[1,2,0] - y[1,3,0] + y[1,3,1] - y[1,4,0]
   - y[2,3,0] <= 0
 fire_persist_1_3_1: - y[1,3,1] + y[1,3,2] + e[1,3,2] >= 0
 fire_spread_1_3_0_3_1: - y[0,3,1] + y[1,3,2] + e[1,3,2] >= 0
 fire_spread_1_3_2_3_1: y[1,3,2] - y[2,3,1] + e[1,3,2] >= 0
 fire_spread_1_3_1_2_1: - y[1,2,1] + y[1,3,2] + e[1,3,2] >= 0
 fire_spread_1_3_1_4_1: y[1,3,2] - y[1,4,1] + e[1,3,2] >= 0
 fire_ub_1_3_1: - y[0,3,1] - y[1,2,1] - y[1,3,1] + y[1,3,2] - y[1,4,1]
   - y[2,3,1] <= 0
 fire_persist_1_3_2: - y[1,3,2] + y[1,3,3] + e[1,3,3] >= 0
 fire_spread_1_3_0_3_2: - y[0,3,2] + y[1,3,3] + e[1,3,3] >= 0
 fire_spread_1_3_2_3_2: y[1,3,3] - y[2,3,2] + e[1,3,3] >= 0
 fire_spread_1_3_1_2_2: - y[1,2,2] + y[1,3,3] + e[1,3,3] >= 0
 fire_spread_1_3_1_4_2: y[1,3,3] - y[1,4,2] + e[1,3,3] >= 0
 fire_ub_1_3_2: - y[0,3,2] - y[1,2,2] - y[1,3,2] + y[1,3,3] - y[1,4,2]
   - y[2,3,2] <= 0
 fire_persist_1_3_3: - y[1,3,3] + y[1,3,4] + e[1,3,4] >= 0
 fire_spread_1_3_0_3_3: - y[0,3,3] + y[1,3,4] + e[1,3,4] >= 0
 fire_spread_1_3_2_3_3: y[1,3,4] - y[2,3,3] + e[1,3,4] >= 0
 fire_spread_1_3_1_2_3: - y[1,2,3] + y[1,3,4] + e[1,3,4] >= 0
 fire_spread_1_3_1_4_3: y[1,3,4] - y[1,4,3] + e[1,3,4] >= 0
 fire_ub_1_3_3: - y[0,3,3] - y[1,2,3] - y[1,3,3] + y[1,3,4] - y[1,4,3]
   - y[2,3,3] <= 0
 fire_persist_1_3_4: - y[1,3,4] + y[1,3,5] + e[1,3,5] >= 0
 fire_spread_1_3_0_3_4: - y[0,3,4] + y[1,3,5] + e[1,3,5] >= 0
 fire_spread_1_3_2_3_4: y[1,3,5] - y[2,3,4] + e[1,3,5] >= 0
 fire_spread_1_3_1_2_4: - y[1,2,4] + y[1,3,5] + e[1,3,5] >= 0
 fire_spread_1_3_1_4_4: y[1,3,5] - y[1,4,4] + e[1,3,5] >= 0
 fire_ub_1_3_4: - y[0,3,4] - y[1,2,4] - y[1,3,4] + y[1,3,5] - y[1,4,4]
   - y[2,3,4] <= 0
 fire_persist_1_3_5: - y[1,3,5] + y[1,3,6] + e[1,3,6] >= 0
 fire_spread_1_3_0_3_5: - y[0,3,5] + y[1,3,6] + e[1,3,6] >= 0
 fire_spread_1_3_2_3_5: y[1,3,6] - y[2,3,5] + e[1,3,6] >= 0
 fire_spread_1_3_1_2_5: - y[1,2,5] + y[1,3,6] + e[1,3,6] >= 0
 fire_spread_1_3_1_4_5: y[1,3,6] - y[1,4,5] + e[1,3,6] >= 0
 fire_ub_1_3_5: - y[0,3,5] - y[1,2,5] - y[1,3,5] + y[1,3,6] - y[1,4,5]
   - y[2,3,5] <= 0
 fire_persist_1_3_6: - y[1,3,6] + y[1,3,7] + e[1,3,7] >= 0
 fire_spread_1_3_0_3_6: - y[0,3,6] + y[1,3,7] + e[1,3,7] >= 0
 fire_spread_1_3_2_3_6: y[1,3,7] - y[2,3,6] + e[1,3,7] >= 0
 fire_spread_1_3_1_2_6: - y[1,2,6] + y[1,3,7] + e[1,3,7] >= 0
 fire_spread_1_3_1_4_6: y[1,3,7] - y[1,4,6] + e[1,3,7] >= 0
 fire_ub_1_3_6: - y[0,3,6] - y[1,2,6] - y[1,3,6] + y[1,3,7] - y[1,4,6]
   - y[2,3,6] <= 0
 fire_persist_1_3_7: - y[1,3,7] + y[1,3,8] + e[1,3,8] >= 0
 fire_spread_1_3_0_3_7: - y[0,3,7] + y[1,3,8] + e[1,3,8] >= 0
 fire_spread_1_3_2_3_7: y[1,3,8] - y[2,3,7] + e[1,3,8] >= 0
 fire_spread_1_3_1_2_7: - y[1,2,7] + y[1,3,8] + e[1,3,8] >= 0
 fire_spread_1_3_1_4_7: y[1,3,8] - y[1,4,7] + e[1,3,8] >= 0
 fire_ub_1_3_7: - y[0,3,7] - y[1,2,7] - y[1,3,7] + y[1,3,8] - y[1,4,7]
   - y[2,3,7] <= 0
 fire_persist_1_3_8: - y[1,3,8] + y[1,3,9] + e[1,3,9] >= 0
 fire_spread_1_3_0_3_8: - y[0,3,8] + y[1,3,9] + e[1,3,9] >= 0
 fire_spread_1_3_2_3_8: y[1,3,9] - y[2,3,8] + e[1,3,9] >= 0
 fire_spread_1_3_1_2_8: - y[1,2,8] + y[1,3,9] + e[1,3,9] >= 0
 fire_spread_1_3_1_4_8: y[1,3,9] - y[1,4,8] + e[1,3,9] >= 0
 fire_ub_1_3_8: - y[0,3,8] - y[1,2,8] - y[1,3,8] + y[1,3,9] - y[1,4,8]
   - y[2,3,8] <= 0
 fire_persist_1_4_0: - y[1,4,0] + y[1,4,1] + e[1,4,1] >= 0
 fire_spread_1_4_0_4_0: - y[0,4,0] + y[1,4,1] + e[1,4,1] >= 0
 fire_spread_1_4_2_4_0: y[1,4,1] - y[2,4,0] + e[1,4,1] >= 0
 fire_spread_1_4_1_3_0: - y[1,3,0] + y[1,4,1] + e[1,4,1] >= 0
 fire_ub_1_4_0: - y[0,4,0] - y[1,3,0] - y[1,4,0] + y[1,4,1] - y[2,4,0]
   <= 0
 fire_persist_1_4_1: - y[1,4,1] + y[1,4,2] + e[1,4,2] >= 0
 fire_spread_1_4_0_4_1: - y[0,4,1] + y[1,4,2] + e[1,4,2] >= 0
 fire_spread_1_4_2_4_1: y[1,4,2] - y[2,4,1] + e[1,4,2] >= 0
 fire_spread_1_4_1_3_1: - y[1,3,1] + y[1,4,2] + e[1,4,2] >= 0
 fire_ub_1_4_1: - y[0,4,1] - y[1,3,1] - y[1,4,1] + y[1,4,2] - y[2,4,1]
   <= 0
 fire_persist_1_4_2: - y[1,4,2] + y[1,4,3] + e[1,4,3] >= 0
 fire_spread_1_4_0_4_2: - y[0,4,2] + y[1,4,3] + e[1,4,3] >= 0
 fire_spread_1_4_2_4_2: y[1,4,3] - y[2,4,2] + e[1,4,3] >= 0
 fire_spread_1_4_1_3_2: - y[1,3,2] + y[1,4,3] + e[1,4,3] >= 0
 fire_ub_1_4_2: - y[0,4,2] - y[1,3,2] - y[1,4,2] + y[1,4,3] - y[2,4,2]
   <= 0
 fire_persist_1_4_3: - y[1,4,3] + y[1,4,4] + e[1,4,4] >= 0
 fire_spread_1_4_0_4_3: - y[0,4,3] + y[1,4,4] + e[1,4,4] >= 0
 fire_spread_1_4_2_4_3: y[1,4,4] - y[2,4,3] + e[1,4,4] >= 0
 fire_spread_1_4_1_3_3: - y[1,3,3] + y[1,4,4] + e[1,4,4] >= 0
 fire_ub_1_4_3: - y[0,4,3] - y[1,3,3] - y[1,4,3] + y[1,4,4] - y[2,4,3]
   <= 0
 fire_persist_1_4_4: - y[1,4,4] + y[1,4,5] + e[1,4,5] >= 0
 fire_spread_1_4_0_4_4: - y[0,4,4] + y[1,4,5] + e[1,4,5] >= 0
 fire_spread_1_4_2_4_4: y[1,4,5] - y[2,4,4] + e[1,4,5] >= 0
 fire_spread_1_4_1_3_4: - y[1,3,4] + y[1,4,5] + e[1,4,5] >= 0
 fire_ub_1_4_4: - y[0,4,4] - y[1,3,4] - y[1,4,4] + y[1,4,5] - y[2,4,4]
   <= 0
 fire_persist_1_4_5: - y[1,4,5] + y[1,4,6] + e[1,4,6] >= 0
 fire_spread_1_4_0_4_5: - y[0,4,5] + y[1,4,6] + e[1,4,6] >= 0
 fire_spread_1_4_2_4_5: y[1,4,6] - y[2,4,5] + e[1,4,6] >= 0
 fire_spread_1_4_1_3_5: - y[1,3,5] + y[1,4,6] + e[1,4,6] >= 0
 fire_ub_1_4_5: - y[0,4,5] - y[1,3,5] - y[1,4,5] + y[1,4,6] - y[2,4,5]
   <= 0
 fire_persist_1_4_6: - y[1,4,6] + y[1,4,7] + e[1,4,7] >= 0
 fire_spread_1_4_0_4_6: - y[0,4,6] + y[1,4,7] + e[1,4,7] >= 0
 fire_spread_1_4_2_4_6: y[1,4,7] - y[2,4,6] + e[1,4,7] >= 0
 fire_spread_1_4_1_3_6: - y[1,3,6] + y[1,4,7] + e[1,4,7] >= 0
 fire_ub_1_4_6: - y[0,4,6] - y[1,3,6] - y[1,4,6] + y[1,4,7] - y[2,4,6]
   <= 0
 fire_persist_1_4_7: - y[1,4,7] + y[1,4,8] + e[1,4,8] >= 0
 fire_spread_1_4_0_4_7: - y[0,4,7] + y[1,4,8] + e[1,4,8] >= 0
 fire_spread_1_4_2_4_7: y[1,4,8] - y[2,4,7] + e[1,4,8] >= 0
 fire_spread_1_4_1_3_7: - y[1,3,7] + y[1,4,8] + e[1,4,8] >= 0
 fire_ub_1_4_7: - y[0,4,7] - y[1,3,7] - y[1,4,7] + y[1,4,8] - y[2,4,7]
   <= 0
 fire_persist_1_4_8: - y[1,4,8] + y[1,4,9] + e[1,4,9] >= 0
 fire_spread_1_4_0_4_8: - y[0,4,8] + y[1,4,9] + e[1,4,9] >= 0
 fire_spread_1_4_2_4_8: y[1,4,9] - y[2,4,8] + e[1,4,9] >= 0
 fire_spread_1_4_1_3_8: - y[1,3,8] + y[1,4,9] + e[1,4,9] >= 0
 fire_ub_1_4_8: - y[0,4,8] - y[1,3,8] - y[1,4,8] + y[1,4,9] - y[2,4,8]
   <= 0
 fire_persist_2_0_0: - y[2,0,0] + y[2,0,1] + e[2,0,1] >= 0
 fire_spread_2_0_1_0_0: - y[1,0,0] + y[2,0,1] + e[2,0,1] >= 0
 fire_spread_2_0_3_0_0: y[2,0,1] - y[3,0,0] + e[2,0,1] >= 0
 fire_spread_2_0_2_1_0: y[2,0,1] - y[2,1,0] + e[2,0,1] >= 0
 fire_ub_2_0_0: - y[1,0,0] - y[2,0,0] + y[2,0,1] - y[2,1,0] - y[3,0,0]
   <= 0
 fire_persist_2_0_1: - y[2,0,1] + y[2,0,2] + e[2,0,2] >= 0
 fire_spread_2_0_1_0_1: - y[1,0,1] + y[2,0,2] + e[2,0,2] >= 0
 fire_spread_2_0_3_0_1: y[2,0,2] - y[3,0,1] + e[2,0,2] >= 0
 fire_spread_2_0_2_1_1: y[2,0,2] - y[2,1,1] + e[2,0,2] >= 0
 fire_ub_2_0_1: - y[1,0,1] - y[2,0,1] + y[2,0,2] - y[2,1,1] - y[3,0,1]
   <= 0
 fire_persist_2_0_2: - y[2,0,2] + y[2,0,3] + e[2,0,3] >= 0
 fire_spread_2_0_1_0_2: - y[1,0,2] + y[2,0,3] + e[2,0,3] >= 0
 fire_spread_2_0_3_0_2: y[2,0,3] - y[3,0,2] + e[2,0,3] >= 0
 fire_spread_2_0_2_1_2: y[2,0,3] - y[2,1,2] + e[2,0,3] >= 0
 fire_ub_2_0_2: - y[1,0,2] - y[2,0,2] + y[2,0,3] - y[2,1,2] - y[3,0,2]
   <= 0
 fire_persist_2_0_3: - y[2,0,3] + y[2,0,4] + e[2,0,4] >= 0
 fire_spread_2_0_1_0_3: - y[1,0,3] + y[2,0,4] + e[2,0,4] >= 0
 fire_spread_2_0_3_0_3: y[2,0,4] - y[3,0,3] + e[2,0,4] >= 0
 fire_spread_2_0_2_1_3: y[2,0,4] - y[2,1,3] + e[2,0,4] >= 0
 fire_ub_2_0_3: - y[1,0,3] - y[2,0,3] + y[2,0,4] - y[2,1,3] - y[3,0,3]
   <= 0
 fire_persist_2_0_4: - y[2,0,4] + y[2,0,5] + e[2,0,5] >= 0
 fire_spread_2_0_1_0_4: - y[1,0,4] + y[2,0,5] + e[2,0,5] >= 0
 fire_spread_2_0_3_0_4: y[2,0,5] - y[3,0,4] + e[2,0,5] >= 0
 fire_spread_2_0_2_1_4: y[2,0,5] - y[2,1,4] + e[2,0,5] >= 0
 fire_ub_2_0_4: - y[1,0,4] - y[2,0,4] + y[2,0,5] - y[2,1,4] - y[3,0,4]
   <= 0
 fire_persist_2_0_5: - y[2,0,5] + y[2,0,6] + e[2,0,6] >= 0
 fire_spread_2_0_1_0_5: - y[1,0,5] + y[2,0,6] + e[2,0,6] >= 0
 fire_spread_2_0_3_0_5: y[2,0,6] - y[3,0,5] + e[2,0,6] >= 0
 fire_spread_2_0_2_1_5: y[2,0,6] - y[2,1,5] + e[2,0,6] >= 0
 fire_ub_2_0_5: - y[1,0,5] - y[2,0,5] + y[2,0,6] - y[2,1,5] - y[3,0,5]
   <= 0
 fire_persist_2_0_6: - y[2,0,6] + y[2,0,7] + e[2,0,7] >= 0
 fire_spread_2_0_1_0_6: - y[1,0,6] + y[2,0,7] + e[2,0,7] >= 0
 fire_spread_2_0_3_0_6: y[2,0,7] - y[3,0,6] + e[2,0,7] >= 0
 fire_spread_2_0_2_1_6: y[2,0,7] - y[2,1,6] + e[2,0,7] >= 0
 fire_ub_2_0_6: - y[1,0,6] - y[2,0,6] + y[2,0,7] - y[2,1,6] - y[3,0,6]
   <= 0
 fire_persist_2_0_7: - y[2,0,7] + y[2,0,8] + e[2,0,8] >= 0
 fire_spread_2_0_1_0_7: - y[1,0,7] + y[2,0,8] + e[2,0,8] >= 0
 fire_spread_2_0_3_0_7: y[2,0,8] - y[3,0,7] + e[2,0,8] >= 0
 fire_spread_2_0_2_1_7: y[2,0,8] - y[2,1,7] + e[2,0,8] >= 0
 fire_ub_2_0_7: - y[1,0,7] - y[2,0,7] + y[2,0,8] - y[2,1,7] - y[3,0,7]
   <= 0
 fire_persist_2_0_8: - y[2,0,8] + y[2,0,9] + e[2,0,9] >= 0
 fire_spread_2_0_1_0_8: - y[1,0,8] + y[2,0,9] + e[2,0,9] >= 0
 fire_spread_2_0_3_0_8: y[2,0,9] - y[3,0,8] + e[2,0,9] >= 0
 fire_spread_2_0_2_1_8: y[2,0,9] - y[2,1,8] + e[2,0,9] >= 0
 fire_ub_2_0_8: - y[1,0,8] - y[2,0,8] + y[2,0,9] - y[2,1,8] - y[3,0,8]
   <= 0
 fire_persist_2_1_0: - y[2,1,0] + y[2,1,1] + e[2,1,1] >= 0
 fire_spread_2_1_1_1_0: - y[1,1,0] + y[2,1,1] + e[2,1,1] >= 0
 fire_spread_2_1_3_1_0: y[2,1,1] - y[3,1,0] + e[2,1,1] >= 0
 fire_spread_2_1_2_0_0: - y[2,0,0] + y[2,1,1] + e[2,1,1] >= 0
 fire_spread_2_1_2_2_0: y[2,1,1] - y[2,2,0] + e[2,1,1] >= 0
 fire_ub_2_1_0: - y[1,1,0] - y[2,0,0] - y[2,1,0] + y[2,1,1] - y[2,2,0]
   - y[3,1,0] <= 0
 fire_persist_2_1_1: - y[2,1,1] + y[2,1,2] + e[2,1,2] >= 0
 fire_spread_2_1_1_1_1: - y[1,1,1] + y[2,1,2] + e[2,1,2] >= 0
 fire_spread_2_1_3_1_1: y[2,1,2] - y[3,1,1] + e[2,1,2] >= 0
 fire_spread_2_1_2_0_1: - y[2,0,1] + y[2,1,2] + e[2,1,2] >= 0
 fire_spread_2_1_2_2_1: y[2,1,2] - y[2,2,1] + e[2,1,2] >= 0
 fire_ub_2_1_1: - y[1,1,1] - y[2,0,1] - y[2,1,1] + y[2,1,2] - y[2,2,1]
   - y[3,1,1] <= 0
 fire_persist_2_1_2: - y[2,1,2] + y[2,1,3] + e[2,1,3] >= 0
 fire_spread_2_1_1_1_2: - y[1,1,2] + y[2,1,3] + e[2,1,3] >= 0
 fire_spread_2_1_3_1_2: y[2,1,3] - y[3,1,2] + e[2,1,3] >= 0
 fire_spread_2_1_2_0_2: - y[2,0,2] + y[2,1,3] + e[2,1,3] >= 0
 fire_spread_2_1_2_2_2: y[2,1,3] - y[2,2,2] + e[2,1,3] >= 0
 fire_ub_2_1_2: - y[1,1,2] - y[2,0,2] - y[2,1,2] + y[2,1,3] - y[2,2,2]
   - y[3,1,2] <= 0
 fire_persist_2_1_3: - y[2,1,3] + y[2,1,4] + e[2,1,4] >= 0
 fire_spread_2_1_1_1_3: - y[1,1,3] + y[2,1,4] + e[2,1,4] >= 0
 fire_spread_2_1_3_1_3: y[2,1,4] - y[3,1,3] + e[2,1,4] >= 0
 fire_spread_2_1_2_0_3: - y[2,0,3] + y[2,1,4] + e[2,1,4] >= 0
 fire_spread_2_1_2_2_3: y[2,1,4] - y[2,2,3] + e[2,1,4] >= 0
 fire_ub_2_1_3: - y[1,1,3] - y[2,0,3] - y[2,1,3] + y[2,1,4] - y[2,2,3]
   - y[3,1,3] <= 0
 fire_persist_2_1_4: - y[2,1,4] + y[2,1,5] + e[2,1,5] >= 0
 fire_spread_2_1_1_1_4: - y[1,1,4] + y[2,1,5] + e[2,1,5] >= 0
 fire_spread_2_1_3_1_4: y[2,1,5] - y[3,1,4] + e[2,1,5] >= 0
 fire_spread_2_1_2_0_4: - y[2,0,4] + y[2,1,5] + e[2,1,5] >= 0
 fire_spread_2_1_2_2_4: y[2,1,5] - y[2,2,4] + e[2,1,5] >= 0
 fire_ub_2_1_4: - y[1,1,4] - y[2,0,4] - y[2,1,4] + y[2,1,5] - y[2,2,4]
   - y[3,1,4] <= 0
 fire_persist_2_1_5: - y[2,1,5] + y[2,1,6] + e[2,1,6] >= 0
 fire_spread_2_1_1_1_5: - y[1,1,5] + y[2,1,6] + e[2,1,6] >= 0
 fire_spread_2_1_3_1_5: y[2,1,6] - y[3,1,5] + e[2,1,6] >= 0
 fire_spread_2_1_2_0_5: - y[2,0,5] + y[2,1,6] + e[2,1,6] >= 0
 fire_spread_2_1_2_2_5: y[2,1,6] - y[2,2,5] + e[2,1,6] >= 0
 fire_ub_2_1_5: - y[1,1,5] - y[2,0,5] - y[2,1,5] + y[2,1,6] - y[2,2,5]
   - y[3,1,5] <= 0
 fire_persist_2_1_6: - y[2,1,6] + y[2,1,7] + e[2,1,7] >= 0
 fire_spread_2_1_1_1_6: - y[1,1,6] + y[2,1,7] + e[2,1,7] >= 0
 fire_spread_2_1_3_1_6: y[2,1,7] - y[3,1,6] + e[2,1,7] >= 0
 fire_spread_2_1_2_0_6: - y[2,0,6] + y[2,1,7] + e[2,1,7] >= 0
 fire_spread_2_1_2_2_6: y[2,1,7] - y[2,2,6] + e[2,1,7] >= 0
 fire_ub_2_1_6: - y[1,1,6] - y[2,0,6] - y[2,1,6] + y[2,1,7] - y[2,2,6]
   - y[3,1,6] <= 0
 fire_persist_2_1_7: - y[2,1,7] + y[2,1,8] + e[2,1,8] >= 0
 fire_spread_2_1_1_1_7: - y[1,1,7] + y[2,1,8] + e[2,1,8] >= 0
 fire_spread_2_1_3_1_7: y[2,1,8] - y[3,1,7] + e[2,1,8] >= 0
 fire_spread_2_1_2_0_7: - y[2,0,7] + y[2,1,8] + e[2,1,8] >= 0
 fire_spread_2_1_2_2_7: y[2,1,8] - y[2,2,7] + e[2,1,8] >= 0
 fire_ub_2_1_7: - y[1,1,7] - y[2,0,7] - y[2,1,7] + y[2,1,8] - y[2,2,7]
   - y[3,1,7] <= 0
 fire_persist_2_1_8: - y[2,1,8] + y[2,1,9] + e[2,1,9] >= 0
 fire_spread_2_1_1_1_8: - y[1,1,8] + y[2,1,9] + e[2,1,9] >= 0
 fire_spread_2_1_3_1_8: y[2,1,9] - y[3,1,8] + e[2,1,9] >= 0
 fire_spread_2_1_2_0_8: - y[2,0,8] + y[2,1,9] + e[2,1,9] >= 0
 fire_spread_2_1_2_2_8: y[2,1,9] - y[2,2,8] + e[2,1,9] >= 0
 fire_ub_2_1_8: - y[1,1,8] - y[2,0,8] - y[2,1,8] + y[2,1,9] - y[2,2,8]
   - y[3,1,8] <= 0
 fire_persist_2_2_0: - y[2,2,0] + y[2,2,1] + e[2,2,1] >= 0
 fire_spread_2_2_1_2_0: - y[1,2,0] + y[2,2,1] + e[2,2,1] >= 0
 fire_spread_2_2_3_2_0: y[2,2,1] - y[3,2,0] + e[2,2,1] >= 0
 fire_spread_2_2_2_1_0: - y[2,1,0] + y[2,2,1] + e[2,2,1] >= 0
 fire_spread_2_2_2_3_0: y[2,2,1] - y[2,3,0] + e[2,2,1] >= 0
 fire_ub_2_2_0: - y[1,2,0] - y[2,1,0] - y[2,2,0] + y[2,2,1] - y[2,3,0]
   - y[3,2,0] <= 0
 fire_persist_2_2_1: - y[2,2,1] + y[2,2,2] + e[2,2,2] >= 0
 fire_spread_2_2_1_2_1: - y[1,2,1] + y[2,2,2] + e[2,2,2] >= 0
 fire_spread_2_2_3_2_1: y[2,2,2] - y[3,2,1] + e[2,2,2] >= 0
 fire_spread_2_2_2_1_1: - y[2,1,1] + y[2,2,2] + e[2,2,2] >= 0
 fire_spread_2_2_2_3_1: y[2,2,2] - y[2,3,1] + e[2,2,2] >= 0
 fire_ub_2_2_1: - y[1,2,1] - y[2,1,1] - y[2,2,1] + y[2,2,2] - y[2,3,1]
   - y[3,2,1] <= 0
 fire_persist_2_2_2: - y[2,2,2] + y[2,2,3] + e[2,2,3] >= 0
 fire_spread_2_2_1_2_2: - y[1,2,2] + y[2,2,3] + e[2,2,3] >= 0
 fire_spread_2_2_3_2_2: y[2,2,3] - y[3,2,2] + e[2,2,3] >= 0
 fire_spread_2_2_2_1_2: - y[2,1,2] + y[2,2,3] + e[2,2,3] >= 0
 fire_spread_2_2_2_3_2: y[2,2,3] - y[2,3,2] + e[2,2,3] >= 0
 fire_ub_2_2_2: - y[1,2,2] - y[2,1,2] - y[2,2,2] + y[2,2,3] - y[2,3,2]
   - y[3,2,2] <= 0
 fire_persist_2_2_3: - y[2,2,3] + y[2,2,4] + e[2,2,4] >= 0
 fire_spread_2_2_1_2_3: - y[1,2,3] + y[2,2,4] + e[2,2,4] >= 0
 fire_spread_2_2_3_2_3: y[2,2,4] - y[3,2,3] + e[2,2,4] >= 0
 fire_spread_2_2_2_1_3: - y[2,1,3] + y[2,2,4] + e[2,2,4] >= 0
 fire_spread_2_2_2_3_3: y[2,2,4] - y[2,3,3] + e[2,2,4] >= 0
 fire_ub_2_2_3: - y[1,2,3] - y[2,1,3] - y[2,2,3] + y[2,2,4] - y[2,3,3]
   - y[3,2,3] <= 0
 fire_persist_2_2_4: - y[2,2,4] + y[2,2,5] + e[2,2,5] >= 0
 fire_spread_2_2_1_2_4: - y[1,2,4] + y[2,2,5] + e[2,2,5] >= 0
 fire_spread_2_2_3_2_4: y[2,2,5] - y[3,2,4] + e[2,2,5] >= 0
 fire_spread_2_2_2_1_4: - y[2,1,4] + y[2,2,5] + e[2,2,5] >= 0
 fire_spread_2_2_2_3_4: y[2,2,5] - y[2,3,4] + e[2,2,5] >= 0
 fire_ub_2_2_4: - y[1,2,4] - y[2,1,4] - y[2,2,4] + y[2,2,5] - y[2,3,4]
   - y[3,2,4] <= 0
 fire_persist_2_2_5: - y[2,2,5] + y[2,2,6] + e[2,2,6] >= 0
 fire_spread_2_2_1_2_5: - y[1,2,5] + y[2,2,6] + e[2,2,6] >= 0
 fire_spread_2_2_3_2_5: y[2,2,6] - y[3,2,5] + e[2,2,6] >= 0
 fire_spread_2_2_2_1_5: - y[2,1,5] + y[2,2,6] + e[2,2,6] >= 0
 fire_spread_2_2_2_3_5: y[2,2,6] - y[2,3,5] + e[2,2,6] >= 0
 fire_ub_2_2_5: - y[1,2,5] - y[2,1,5] - y[2,2,5] + y[2,2,6] - y[2,3,5]
   - y[3,2,5] <= 0
 fire_persist_2_2_6: - y[2,2,6] + y[2,2,7] + e[2,2,7] >= 0
 fire_spread_2_2_1_2_6: - y[1,2,6] + y[2,2,7] + e[2,2,7] >= 0
 fire_spread_2_2_3_2_6: y[2,2,7] - y[3,2,6] + e[2,2,7] >= 0
 fire_spread_2_2_2_1_6: - y[2,1,6] + y[2,2,7] + e[2,2,7] >= 0
 fire_spread_2_2_2_3_6: y[2,2,7] - y[2,3,6] + e[2,2,7] >= 0
 fire_ub_2_2_6: - y[1,2,6] - y[2,1,6] - y[2,2,6] + y[2,2,7] - y[2,3,6]
   - y[3,2,6] <= 0
 fire_persist_2_2_7: - y[2,2,7] + y[2,2,8] + e[2,2,8] >= 0
 fire_spread_2_2_1_2_7: - y[1,2,7] + y[2,2,8] + e[2,2,8] >= 0
 fire_spread_2_2_3_2_7: y[2,2,8] - y[3,2,7] + e[2,2,8] >= 0
 fire_spread_2_2_2_1_7: - y[2,1,7] + y[2,2,8] + e[2,2,8] >= 0
 fire_spread_2_2_2_3_7: y[2,2,8] - y[2,3,7] + e[2,2,8] >= 0
 fire_ub_2_2_7: - y[1,2,7] - y[2,1,7] - y[2,2,7] + y[2,2,8] - y[2,3,7]
   - y[3,2,7] <= 0
 fire_persist_2_2_8: - y[2,2,8] + y[2,2,9] + e[2,2,9] >= 0
 fire_spread_2_2_1_2_8: - y[1,2,8] + y[2,2,9] + e[2,2,9] >= 0
 fire_spread_2_2_3_2_8: y[2,2,9] - y[3,2,8] + e[2,2,9] >= 0
 fire_spread_2_2_2_1_8: - y[2,1,8] + y[2,2,9] + e[2,2,9] >= 0
 fire_spread_2_2_2_3_8: y[2,2,9] - y[2,3,8] + e[2,2,9] >= 0
 fire_ub_2_2_8: - y[1,2,8] - y[2,1,8] - y[2,2,8] + y[2,2,9] - y[2,3,8]
   - y[3,2,8] <= 0
 fire_persist_2_3_0: - y[2,3,0] + y[2,3,1] + e[2,3,1] >= 0
 fire_spread_2_3_1_3_0: - y[1,3,0] + y[2,3,1] + e[2,3,1] >= 0
 fire_spread_2_3_3_3_0: y[2,3,1] - y[3,3,0] + e[2,3,1] >= 0
 fire_spread_2_3_2_2_0: - y[2,2,0] + y[2,3,1] + e[2,3,1] >= 0
 fire_spread_2_3_2_4_0: y[2,3,1] - y[2,4,0] + e[2,3,1] >= 0
 fire_ub_2_3_0: - y[1,3,0] - y[2,2,0] - y[2,3,0] + y[2,3,1] - y[2,4,0]
   - y[3,3,0] <= 0
 fire_persist_2_3_1: - y[2,3,1] + y[2,3,2] + e[2,3,2] >= 0
 fire_spread_2_3_1_3_1: - y[1,3,1] + y[2,3,2] + e[2,3,2] >= 0
 fire_spread_2_3_3_3_1: y[2,3,2] - y[3,3,1] + e[2,3,2] >= 0
 fire_spread_2_3_2_2_1: - y[2,2,1] + y[2,3,2] + e[2,3,2] >= 0
 fire_spread_2_3_2_4_1: y[2,3,2] - y[2,4,1] + e[2,3,2] >= 0
 fire_ub_2_3_1: - y[1,3,1] - y[2,2,1] - y[2,3,1] + y[2,3,2] - y[2,4,1]
   - y[3,3,1] <= 0
 fire_persist_2_3_2: - y[2,3,2] + y[2,3,3] + e[2,3,3] >= 0
 fire_spread_2_3_1_3_2: - y[1,3,2] + y[2,3,3] + e[2,3,3] >= 0
 fire_spread_2_3_3_3_2: y[2,3,3] - y[3,3,2] + e[2,3,3] >= 0
 fire_spread_2_3_2_2_2: - y[2,2,2] + y[2,3,3] + e[2,3,3] >= 0
 fire_spread_2_3_2_4_2: y[2,3,3] - y[2,4,2] + e[2,3,3] >= 0
 fire_ub_2_3_2: - y[1,3,2] - y[2,2,2] - y[2,3,2] + y[2,3,3] - y[2,4,2]
   - y[3,3,2] <= 0
 fire_persist_2_3_3: - y[2,3,3] + y[2,3,4] + e[2,3,4] >= 0
 fire_spread_2_3_1_3_3: - y[1,3,3] + y[2,3,4] + e[2,3,4] >= 0
 fire_spread_2_3_3_3_3: y[2,3,4] - y[3,3,3] + e[2,3,4] >= 0
 fire_spread_2_3_2_2_3: - y[2,2,3] + y[2,3,4] + e[2,3,4] >= 0
 fire_spread_2_3_2_4_3: y[2,3,4] - y[2,4,3] + e[2,3,4] >= 0
 fire_ub_2_3_3: - y[1,3,3] - y[2,2,3] - y[2,3,3] + y[2,3,4] - y[2,4,3]
   - y[3,3,3] <= 0
 fire_persist_2_3_4: - y[2,3,4] + y[2,3,5] + e[2,3,5] >= 0
 fire_spread_2_3_1_3_4: - y[1,3,4] + y[2,3,5] + e[2,3,5] >= 0
 fire_spread_2_3_3_3_4: y[2,3,5] - y[3,3,4] + e[2,3,5] >= 0
 fire_spread_2_3_2_2_4: - y[2,2,4] + y[2,3,5] + e[2,3,5] >= 0
 fire_spread_2_3_2_4_4: y[2,3,5] - y[2,4,4] + e[2,3,5] >= 0
 fire_ub_2_3_4: - y[1,3,4] - y[2,2,4] - y[2,3,4] + y[2,3,5] - y[2,4,4]
   - y[3,3,4] <= 0
 fire_persist_2_3_5: - y[2,3,5] + y[2,3,6] + e[2,3,6] >= 0
 fire_spread_2_3_1_3_5: - y[1,3,5] + y[2,3,6] + e[2,3,6] >= 0
 fire_spread_2_3_3_3_5: y[2,3,6] - y[3,3,5] + e[2,3,6] >= 0
 fire_spread_2_3_2_2_5: - y[2,2,5] + y[2,3,6] + e[2,3,6] >= 0
 fire_spread_2_3_2_4_5: y[2,3,6] - y[2,4,5] + e[2,3,6] >= 0
 fire_ub_2_3_5: - y[1,3,5] - y[2,2,5] - y[2,3,5] + y[2,3,6] - y[2,4,5]
   - y[3,3,5] <= 0
 fire_persist_2_3_6: - y[2,3,6] + y[2,3,7] + e[2,3,7] >= 0
 fire_spread_2_3_1_3_6: - y[1,3,6] + y[2,3,7] + e[2,3,7] >= 0
 fire_spread_2_3_3_3_6: y[2,3,7] - y[3,3,6] + e[2,3,7] >= 0
 fire_spread_2_3_2_2_6: - y[2,2,6] + y[2,3,7] + e[2,3,7] >= 0
 fire_spread_2_3_2_4_6: y[2,3,7] - y[2,4,6] + e[2,3,7] >= 0
 fire_ub_2_3_6: - y[1,3,6] - y[2,2,6] - y[2,3,6] + y[2,3,7] - y[2,4,6]
   - y[3,3,6] <= 0
 fire_persist_2_3_7: - y[2,3,7] + y[2,3,8] + e[2,3,8] >= 0
 fire_spread_2_3_1_3_7: - y[1,3,7] + y[2,3,8] + e[2,3,8] >= 0
 fire_spread_2_3_3_3_7: y[2,3,8] - y[3,3,7] + e[2,3,8] >= 0
 fire_spread_2_3_2_2_7: - y[2,2,7] + y[2,3,8] + e[2,3,8] >= 0
 fire_spread_2_3_2_4_7: y[2,3,8] - y[2,4,7] + e[2,3,8] >= 0
 fire_ub_2_3_7: - y[1,3,7] - y[2,2,7] - y[2,3,7] + y[2,3,8] - y[2,4,7]
   - y[3,3,7] <= 0
 fire_persist_2_3_8: - y[2,3,8] + y[2,3,9] + e[2,3,9] >= 0
 fire_spread_2_3_1_3_8: - y[1,3,8] + y[2,3,9] + e[2,3,9] >= 0
 fire_spread_2_3_3_3_8: y[2,3,9] - y[3,3,8] + e[2,3,9] >= 0
 fire_spread_2_3_2_2_8: - y[2,2,8] + y[2,3,9] + e[2,3,9] >= 0
 fire_spread_2_3_2_4_8: y[2,3,9] - y[2,4,8] + e[2,3,9] >= 0
 fire_ub_2_3_8: - y[1,3,8] - y[2,2,8] - y[2,3,8] + y[2,3,9] - y[2,4,8]
   - y[3,3,8] <= 0
 fire_persist_2_4_0: - y[2,4,0] + y[2,4,1] + e[2,4,1] >= 0
 fire_spread_2_4_1_4_0: - y[1,4,0] + y[2,4,1] + e[2,4,1] >= 0
 fire_spread_2_4_3_4_0: y[2,4,1] - y[3,4,0] + e[2,4,1] >= 0
 fire_spread_2_4_2_3_0: - y[2,3,0] + y[2,4,1] + e[2,4,1] >= 0
 fire_ub_2_4_0: - y[1,4,0] - y[2,3,0] - y[2,4,0] + y[2,4,1] - y[3,4,0]
   <= 0
 fire_persist_2_4_1: - y[2,4,1] + y[2,4,2] + e[2,4,2] >= 0
 fire_spread_2_4_1_4_1: - y[1,4,1] + y[2,4,2] + e[2,4,2] >= 0
 fire_spread_2_4_3_4_1: y[2,4,2] - y[3,4,1] + e[2,4,2] >= 0
 fire_spread_2_4_2_3_1: - y[2,3,1] + y[2,4,2] + e[2,4,2] >= 0
 fire_ub_2_4_1: - y[1,4,1] - y[2,3,1] - y[2,4,1] + y[2,4,2] - y[3,4,1]
   <= 0
 fire_persist_2_4_2: - y[2,4,2] + y[2,4,3] + e[2,4,3] >= 0
 fire_spread_2_4_1_4_2: - y[1,4,2] + y[2,4,3] + e[2,4,3] >= 0
 fire_spread_2_4_3_4_2: y[2,4,3] - y[3,4,2] + e[2,4,3] >= 0
 fire_spread_2_4_2_3_2: - y[2,3,2] + y[2,4,3] + e[2,4,3] >= 0
 fire_ub_2_4_2: - y[1,4,2] - y[2,3,2] - y[2,4,2] + y[2,4,3] - y[3,4,2]
   <= 0
 fire_persist_2_4_3: - y[2,4,3] + y[2,4,4] + e[2,4,4] >= 0
 fire_spread_2_4_1_4_3: - y[1,4,3] + y[2,4,4] + e[2,4,4] >= 0
 fire_spread_2_4_3_4_3: y[2,4,4] - y[3,4,3] + e[2,4,4] >= 0
 fire_spread_2_4_2_3_3: - y[2,3,3] + y[2,4,4] + e[2,4,4] >= 0
 fire_ub_2_4_3: - y[1,4,3] - y[2,3,3] - y[2,4,3] + y[2,4,4] - y[3,4,3]
   <= 0
 fire_persist_2_4_4: - y[2,4,4] + y[2,4,5] + e[2,4,5] >= 0
 fire_spread_2_4_1_4_4: - y[1,4,4] + y[2,4,5] + e[2,4,5] >= 0
 fire_spread_2_4_3_4_4: y[2,4,5] - y[3,4,4] + e[2,4,5] >= 0
 fire_spread_2_4_2_3_4: - y[2,3,4] + y[2,4,5] + e[2,4,5] >= 0
 fire_ub_2_4_4: - y[1,4,4] - y[2,3,4] - y[2,4,4] + y[2,4,5] - y[3,4,4]
   <= 0
 fire_persist_2_4_5: - y[2,4,5] + y[2,4,6] + e[2,4,6] >= 0
 fire_spread_2_4_1_4_5: - y[1,4,5] + y[2,4,6] + e[2,4,6] >= 0
 fire_spread_2_4_3_4_5: y[2,4,6] - y[3,4,5] + e[2,4,6] >= 0
 fire_spread_2_4_2_3_5: - y[2,3,5] + y[2,4,6] + e[2,4,6] >= 0
 fire_ub_2_4_5: - y[1,4,5] - y[2,3,5] - y[2,4,5] + y[2,4,6] - y[3,4,5]
   <= 0
 fire_persist_2_4_6: - y[2,4,6] + y[2,4,7] + e[2,4,7] >= 0
 fire_spread_2_4_1_4_6: - y[1,4,6] + y[2,4,7] + e[2,4,7] >= 0
 fire_spread_2_4_3_4_6: y[2,4,7] - y[3,4,6] + e[2,4,7] >= 0
 fire_spread_2_4_2_3_6: - y[2,3,6] + y[2,4,7] + e[2,4,7] >= 0
 fire_ub_2_4_6: - y[1,4,6] - y[2,3,6] - y[2,4,6] + y[2,4,7] - y[3,4,6]
   <= 0
 fire_persist_2_4_7: - y[2,4,7] + y[2,4,8] + e[2,4,8] >= 0
 fire_spread_2_4_1_4_7: - y[1,4,7] + y[2,4,8] + e[2,4,8] >= 0
 fire_spread_2_4_3_4_7: y[2,4,8] - y[3,4,7] + e[2,4,8] >= 0
 fire_spread_2_4_2_3_7: - y[2,3,7] + y[2,4,8] + e[2,4,8] >= 0
 fire_ub_2_4_7: - y[1,4,7] - y[2,3,7] - y[2,4,7] + y[2,4,8] - y[3,4,7]
   <= 0
 fire_persist_2_4_8: - y[2,4,8] + y[2,4,9] + e[2,4,9] >= 0
 fire_spread_2_4_1_4_8: - y[1,4,8] + y[2,4,9] + e[2,4,9] >= 0
 fire_spread_2_4_3_4_8: y[2,4,9] - y[3,4,8] + e[2,4,9] >= 0
 fire_spread_2_4_2_3_8: - y[2,3,8] + y[2,4,9] + e[2,4,9] >= 0
 fire_ub_2_4_8: - y[1,4,8] - y[2,3,8] - y[2,4,8] + y[2,4,9] - y[3,4,8]
   <= 0
 fire_persist_3_0_0: - y[3,0,0] + y[3,0,1] + e[3,0,1] >= 0
 fire_spread_3_0_2_0_0: - y[2,0,0] + y[3,0,1] + e[3,0,1] >= 0
 fire_spread_3_0_4_0_0: y[3,0,1] - y[4,0,0] + e[3,0,1] >= 0
 fire_spread_3_0_3_1_0: y[3,0,1] - y[3,1,0] + e[3,0,1] >= 0
 fire_ub_3_0_0: - y[2,0,0] - y[3,0,0] + y[3,0,1] - y[3,1,0] - y[4,0,0]
   <= 0
 fire_persist_3_0_1: - y[3,0,1] + y[3,0,2] + e[3,0,2] >= 0
 fire_spread_3_0_2_0_1: - y[2,0,1] + y[3,0,2] + e[3,0,2] >= 0
 fire_spread_3_0_4_0_1: y[3,0,2] - y[4,0,1] + e[3,0,2] >= 0
 fire_spread_3_0_3_1_1: y[3,0,2] - y[3,1,1] + e[3,0,2] >= 0
 fire_ub_3_0_1: - y[2,0,1] - y[3,0,1] + y[3,0,2] - y[3,1,1] - y[4,0,1]
   <= 0
 fire_persist_3_0_2: - y[3,0,2] + y[3,0,3] + e[3,0,3] >= 0
 fire_spread_3_0_2_0_2: - y[2,0,2] + y[3,0,3] + e[3,0,3] >= 0
 fire_spread_3_0_4_0_2: y[3,0,3] - y[4,0,2] + e[3,0,3] >= 0
 fire_spread_3_0_3_1_2: y[3,0,3] - y[3,1,2] + e[3,0,3] >= 0
 fire_ub_3_0_2: - y[2,0,2] - y[3,0,2] + y[3,0,3] - y[3,1,2] - y[4,0,2]
   <= 0
 fire_persist_3_0_3: - y[3,0,3] + y[3,0,4] + e[3,0,4] >= 0
 fire_spread_3_0_2_0_3: - y[2,0,3] + y[3,0,4] + e[3,0,4] >= 0
 fire_spread_3_0_4_0_3: y[3,0,4] - y[4,0,3] + e[3,0,4] >= 0
 fire_spread_3_0_3_1_3: y[3,0,4] - y[3,1,3] + e[3,0,4] >= 0
 fire_ub_3_0_3: - y[2,0,3] - y[3,0,3] + y[3,0,4] - y[3,1,3] - y[4,0,3]
   <= 0
 fire_persist_3_0_4: - y[3,0,4] + y[3,0,5] + e[3,0,5] >= 0
 fire_spread_3_0_2_0_4: - y[2,0,4] + y[3,0,5] + e[3,0,5] >= 0
 fire_spread_3_0_4_0_4: y[3,0,5] - y[4,0,4] + e[3,0,5] >= 0
 fire_spread_3_0_3_1_4: y[3,0,5] - y[3,1,4] + e[3,0,5] >= 0
 fire_ub_3_0_4: - y[2,0,4] - y[3,0,4] + y[3,0,5] - y[3,1,4] - y[4,0,4]
   <= 0
 fire_persist_3_0_5: - y[3,0,5] + y[3,0,6] + e[3,0,6] >= 0
 fire_spread_3_0_2_0_5: - y[2,0,5] + y[3,0,6] + e[3,0,6] >= 0
 fire_spread_3_0_4_0_5: y[3,0,6] - y[4,0,5] + e[3,0,6] >= 0
 fire_spread_3_0_3_1_5: y[3,0,6] - y[3,1,5] + e[3,0,6] >= 0
 fire_ub_3_0_5: - y[2,0,5] - y[3,0,5] + y[3,0,6] - y[3,1,5] - y[4,0,5]
   <= 0
 fire_persist_3_0_6: - y[3,0,6] + y[3,0,7] + e[3,0,7] >= 0
 fire_spread_3_0_2_0_6: - y[2,0,6] + y[3,0,7] + e[3,0,7] >= 0
 fire_spread_3_0_4_0_6: y[3,0,7] - y[4,0,6] + e[3,0,7] >= 0
 fire_spread_3_0_3_1_6: y[3,0,7] - y[3,1,6] + e[3,0,7] >= 0
 fire_ub_3_0_6: - y[2,0,6] - y[3,0,6] + y[3,0,7] - y[3,1,6] - y[4,0,6]
   <= 0
 fire_persist_3_0_7: - y[3,0,7] + y[3,0,8] + e[3,0,8] >= 0
 fire_spread_3_0_2_0_7: - y[2,0,7] + y[3,0,8] + e[3,0,8] >= 0
 fire_spread_3_0_4_0_7: y[3,0,8] - y[4,0,7] + e[3,0,8] >= 0
 fire_spread_3_0_3_1_7: y[3,0,8] - y[3,1,7] + e[3,0,8] >= 0
 fire_ub_3_0_7: - y[2,0,7] - y[3,0,7] + y[3,0,8] - y[3,1,7] - y[4,0,7]
   <= 0
 fire_persist_3_0_8: - y[3,0,8] + y[3,0,9] + e[3,0,9] >= 0
 fire_spread_3_0_2_0_8: - y[2,0,8] + y[3,0,9] + e[3,0,9] >= 0
 fire_spread_3_0_4_0_8: y[3,0,9] - y[4,0,8] + e[3,0,9] >= 0
 fire_spread_3_0_3_1_8: y[3,0,9] - y[3,1,8] + e[3,0,9] >= 0
 fire_ub_3_0_8: - y[2,0,8] - y[3,0,8] + y[3,0,9] - y[3,1,8] - y[4,0,8]
   <= 0
 fire_persist_3_1_0: - y[3,1,0] + y[3,1,1] + e[3,1,1] >= 0
 fire_spread_3_1_2_1_0: - y[2,1,0] + y[3,1,1] + e[3,1,1] >= 0
 fire_spread_3_1_4_1_0: y[3,1,1] - y[4,1,0] + e[3,1,1] >= 0
 fire_spread_3_1_3_0_0: - y[3,0,0] + y[3,1,1] + e[3,1,1] >= 0
 fire_spread_3_1_3_2_0: y[3,1,1] - y[3,2,0] + e[3,1,1] >= 0
 fire_ub_3_1_0: - y[2,1,0] - y[3,0,0] - y[3,1,0] + y[3,1,1] - y[3,2,0]
   - y[4,1,0] <= 0
 fire_persist_3_1_1: - y[3,1,1] + y[3,1,2] + e[3,1,2] >= 0
 fire_spread_3_1_2_1_1: - y[2,1,1] + y[3,1,2] + e[3,1,2] >= 0
 fire_spread_3_1_4_1_1: y[3,1,2] - y[4,1,1] + e[3,1,2] >= 0
 fire_spread_3_1_3_0_1: - y[3,0,1] + y[3,1,2] + e[3,1,2] >= 0
 fire_spread_3_1_3_2_1: y[3,1,2] - y[3,2,1] + e[3,1,2] >= 0
 fire_ub_3_1_1: - y[2,1,1] - y[3,0,1] - y[3,1,1] + y[3,1,2] - y[3,2,1]
   - y[4,1,1] <= 0
 fire_persist_3_1_2: - y[3,1,2] + y[3,1,3] + e[3,1,3] >= 0
 fire_spread_3_1_2_1_2: - y[2,1,2] + y[3,1,3] + e[3,1,3] >= 0
 fire_spread_3_1_4_1_2: y[3,1,3] - y[4,1,2] + e[3,1,3] >= 0
 fire_spread_3_1_3_0_2: - y[3,0,2] + y[3,1,3] + e[3,1,3] >= 0
 fire_spread_3_1_3_2_2: y[3,1,3] - y[3,2,2] + e[3,1,3] >= 0
 fire_ub_3_1_2: - y[2,1,2] - y[3,0,2] - y[3,1,2] + y[3,1,3] - y[3,2,2]
   - y[4,1,2] <= 0
 fire_persist_3_1_3: - y[3,1,3] + y[3,1,4] + e[3,1,4] >= 0
 fire_spread_3_1_2_1_3: - y[2,1,3] + y[3,1,4] + e[3,1,4] >= 0
 fire_spread_3_1_4_1_3: y[3,1,4] - y[4,1,3] + e[3,1,4] >= 0
 fire_spread_3_1_3_0_3: - y[3,0,3] + y[3,1,4] + e[3,1,4] >= 0
 fire_spread_3_1_3_2_3: y[3,1,4] - y[3,2,3] + e[3,1,4] >= 0
 fire_ub_3_1_3: - y[2,1,3] - y[3,0,3] - y[3,1,3] + y[3,1,4] - y[3,2,3]
   - y[4,1,3] <= 0
 fire_persist_3_1_4: - y[3,1,4] + y[3,1,5] + e[3,1,5] >= 0
 fire_spread_3_1_2_1_4: - y[2,1,4] + y[3,1,5] + e[3,1,5] >= 0
 fire_spread_3_1_4_1_4: y[3,1,5] - y[4,1,4] + e[3,1,5] >= 0
 fire_spread_3_1_3_0_4: - y[3,0,4] + y[3,1,5] + e[3,1,5] >= 0
 fire_spread_3_1_3_2_4: y[3,1,5] - y[3,2,4] + e[3,1,5] >= 0
 fire_ub_3_1_4: - y[2,1,4] - y[3,0,4] - y[3,1,4] + y[3,1,5] - y[3,2,4]
   - y[4,1,4] <= 0
 fire_persist_3_1_5: - y[3,1,5] + y[3,1,6] + e[3,1,6] >= 0
 fire_spread_3_1_2_1_5: - y[2,1,5] + y[3,1,6] + e[3,1,6] >= 0
 fire_spread_3_1_4_1_5: y[3,1,6] - y[4,1,5] + e[3,1,6] >= 0
 fire_spread_3_1_3_0_5: - y[3,0,5] + y[3,1,6] + e[3,1,6] >= 0
 fire_spread_3_1_3_2_5: y[3,1,6] - y[3,2,5] + e[3,1,6] >= 0
 fire_ub_3_1_5: - y[2,1,5] - y[3,0,5] - y[3,1,5] + y[3,1,6] - y[3,2,5]
   - y[4,1,5] <= 0
 fire_persist_3_1_6: - y[3,1,6] + y[3,1,7] + e[3,1,7] >= 0
 fire_spread_3_1_2_1_6: - y[2,1,6] + y[3,1,7] + e[3,1,7] >= 0
 fire_spread_3_1_4_1_6: y[3,1,7] - y[4,1,6] + e[3,1,7] >= 0
 fire_spread_3_1_3_0_6: - y[3,0,6] + y[3,1,7] + e[3,1,7] >= 0
 fire_spread_3_1_3_2_6: y[3,1,7] - y[3,2,6] + e[3,1,7] >= 0
 fire_ub_3_1_6: - y[2,1,6] - y[3,0,6] - y[3,1,6] + y[3,1,7] - y[3,2,6]
   - y[4,1,6] <= 0
 fire_persist_3_1_7: - y[3,1,7] + y[3,1,8] + e[3,1,8] >= 0
 fire_spread_3_1_2_1_7: - y[2,1,7] + y[3,1,8] + e[3,1,8] >= 0
 fire_spread_3_1_4_1_7: y[3,1,8] - y[4,1,7] + e[3,1,8] >= 0
 fire_spread_3_1_3_0_7: - y[3,0,7] + y[3,1,8] + e[3,1,8] >= 0
 fire_spread_3_1_3_2_7: y[3,1,8] - y[3,2,7] + e[3,1,8] >= 0
 fire_ub_3_1_7: - y[2,1,7] - y[3,0,7] - y[3,1,7] + y[3,1,8] - y[3,2,7]
   - y[4,1,7] <= 0
 fire_persist_3_1_8: - y[3,1,8] + y[3,1,9] + e[3,1,9] >= 0
 fire_spread_3_1_2_1_8: - y[2,1,8] + y[3,1,9] + e[3,1,9] >= 0
 fire_spread_3_1_4_1_8: y[3,1,9] - y[4,1,8] + e[3,1,9] >= 0
 fire_spread_3_1_3_0_8: - y[3,0,8] + y[3,1,9] + e[3,1,9] >= 0
 fire_spread_3_1_3_2_8: y[3,1,9] - y[3,2,8] + e[3,1,9] >= 0
 fire_ub_3_1_8: - y[2,1,8] - y[3,0,8] - y[3,1,8] + y[3,1,9] - y[3,2,8]
   - y[4,1,8] <= 0
 fire_persist_3_2_0: - y[3,2,0] + y[3,2,1] + e[3,2,1] >= 0
 fire_spread_3_2_2_2_0: - y[2,2,0] + y[3,2,1] + e[3,2,1] >= 0
 fire_spread_3_2_4_2_0: y[3,2,1] - y[4,2,0] + e[3,2,1] >= 0
 fire_spread_3_2_3_1_0: - y[3,1,0] + y[3,2,1] + e[3,2,1] >= 0
 fire_spread_3_2_3_3_0: y[3,2,1] - y[3,3,0] + e[3,2,1] >= 0
 fire_ub_3_2_0: - y[2,2,0] - y[3,1,0] - y[3,2,0] + y[3,2,1] - y[3,3,0]
   - y[4,2,0] <= 0
 fire_persist_3_2_1: - y[3,2,1] + y[3,2,2] + e[3,2,2] >= 0
 fire_spread_3_2_2_2_1: - y[2,2,1] + y[3,2,2] + e[3,2,2] >= 0
 fire_spread_3_2_4_2_1: y[3,2,2] - y[4,2,1] + e[3,2,2] >= 0
 fire_spread_3_2_3_1_1: - y[3,1,1] + y[3,2,2] + e[3,2,2] >= 0
 fire_spread_3_2_3_3_1: y[3,2,2] - y[3,3,1] + e[3,2,2] >= 0
 fire_ub_3_2_1: - y[2,2,1] - y[3,1,1] - y[3,2,1] + y[3,2,2] - y[3,3,1]
   - y[4,2,1] <= 0
 fire_persist_3_2_2: - y[3,2,2] + y[3,2,3] + e[3,2,3] >= 0
 fire_spread_3_2_2_2_2: - y[2,2,2] + y[3,2,3] + e[3,2,3] >= 0
 fire_spread_3_2_4_2_2: y[3,2,3] - y[4,2,2] + e[3,2,3] >= 0
 fire_spread_3_2_3_1_2: - y[3,1,2] + y[3,2,3] + e[3,2,3] >= 0
 fire_spread_3_2_3_3_2: y[3,2,3] - y[3,3,2] + e[3,2,3] >= 0
 fire_ub_3_2_2: - y[2,2,2] - y[3,1,2] - y[3,2,2] + y[3,2,3] - y[3,3,2]
   - y[4,2,2] <= 0
 fire_persist_3_2_3: - y[3,2,3] + y[3,2,4] + e[3,2,4] >= 0
 fire_spread_3_2_2_2_3: - y[2,2,3] + y[3,2,4] + e[3,2,4] >= 0
 fire_spread_3_2_4_2_3: y[3,2,4] - y[4,2,3] + e[3,2,4] >= 0
 fire_spread_3_2_3_1_3: - y[3,1,3] + y[3,2,4] + e[3,2,4] >= 0
 fire_spread_3_2_3_3_3: y[3,2,4] - y[3,3,3] + e[3,2,4] >= 0
 fire_ub_3_2_3: - y[2,2,3] - y[3,1,3] - y[3,2,3] + y[3,2,4] - y[3,3,3]
   - y[4,2,3] <= 0
 fire_persist_3_2_4: - y[3,2,4] + y[3,2,5] + e[3,2,5] >= 0
 fire_spread_3_2_2_2_4: - y[2,2,4] + y[3,2,5] + e[3,2,5] >= 0
 fire_spread_3_2_4_2_4: y[3,2,5] - y[4,2,4] + e[3,2,5] >= 0
 fire_spread_3_2_3_1_4: - y[3,1,4] + y[3,2,5] + e[3,2,5] >= 0
 fire_spread_3_2_3_3_4: y[3,2,5] - y[3,3,4] + e[3,2,5] >= 0
 fire_ub_3_2_4: - y[2,2,4] - y[3,1,4] - y[3,2,4] + y[3,2,5] - y[3,3,4]
   - y[4,2,4] <= 0
 fire_persist_3_2_5: - y[3,2,5] + y[3,2,6] + e[3,2,6] >= 0
 fire_spread_3_2_2_2_5: - y[2,2,5] + y[3,2,6] + e[3,2,6] >= 0
 fire_spread_3_2_4_2_5: y[3,2,6] - y[4,2,5] + e[3,2,6] >= 0
 fire_spread_3_2_3_1_5: - y[3,1,5] + y[3,2,6] + e[3,2,6] >= 0
 fire_spread_3_2_3_3_5: y[3,2,6] - y[3,3,5] + e[3,2,6] >= 0
 fire_ub_3_2_5: - y[2,2,5] - y[3,1,5] - y[3,2,5] + y[3,2,6] - y[3,3,5]
   - y[4,2,5] <= 0
 fire_persist_3_2_6: - y[3,2,6] + y[3,2,7] + e[3,2,7] >= 0
 fire_spread_3_2_2_2_6: - y[2,2,6] + y[3,2,7] + e[3,2,7] >= 0
 fire_spread_3_2_4_2_6: y[3,2,7] - y[4,2,6] + e[3,2,7] >= 0
 fire_spread_3_2_3_1_6: - y[3,1,6] + y[3,2,7] + e[3,2,7] >= 0
 fire_spread_3_2_3_3_6: y[3,2,7] - y[3,3,6] + e[3,2,7] >= 0
 fire_ub_3_2_6: - y[2,2,6] - y[3,1,6] - y[3,2,6] + y[3,2,7] - y[3,3,6]
   - y[4,2,6] <= 0
 fire_persist_3_2_7: - y[3,2,7] + y[3,2,8] + e[3,2,8] >= 0
 fire_spread_3_2_2_2_7: - y[2,2,7] + y[3,2,8] + e[3,2,8] >= 0
 fire_spread_3_2_4_2_7: y[3,2,8] - y[4,2,7] + e[3,2,8] >= 0
 fire_spread_3_2_3_1_7: - y[3,1,7] + y[3,2,8] + e[3,2,8] >= 0
 fire_spread_3_2_3_3_7: y[3,2,8] - y[3,3,7] + e[3,2,8] >= 0
 fire_ub_3_2_7: - y[2,2,7] - y[3,1,7] - y[3,2,7] + y[3,2,8] - y[3,3,7]
   - y[4,2,7] <= 0
 fire_persist_3_2_8: - y[3,2,8] + y[3,2,9] + e[3,2,9] >= 0
 fire_spread_3_2_2_2_8: - y[2,2,8] + y[3,2,9] + e[3,2,9] >= 0
 fire_spread_3_2_4_2_8: y[3,2,9] - y[4,2,8] + e[3,2,9] >= 0
 fire_spread_3_2_3_1_8: - y[3,1,8] + y[3,2,9] + e[3,2,9] >= 0
 fire_spread_3_2_3_3_8: y[3,2,9] - y[3,3,8] + e[3,2,9] >= 0
 fire_ub_3_2_8: - y[2,2,8] - y[3,1,8] - y[3,2,8] + y[3,2,9] - y[3,3,8]
   - y[4,2,8] <= 0
 fire_persist_3_3_0: - y[3,3,0] + y[3,3,1] + e[3,3,1] >= 0
 fire_spread_3_3_2_3_0: - y[2,3,0] + y[3,3,1] + e[3,3,1] >= 0
 fire_spread_3_3_4_3_0: y[3,3,1] - y[4,3,0] + e[3,3,1] >= 0
 fire_spread_3_3_3_2_0: - y[3,2,0] + y[3,3,1] + e[3,3,1] >= 0
 fire_spread_3_3_3_4_0: y[3,3,1] - y[3,4,0] + e[3,3,1] >= 0
 fire_ub_3_3_0: - y[2,3,0] - y[3,2,0] - y[3,3,0] + y[3,3,1] - y[3,4,0]
   - y[4,3,0] <= 0
 fire_persist_3_3_1: - y[3,3,1] + y[3,3,2] + e[3,3,2] >= 0
 fire_spread_3_3_2_3_1: - y[2,3,1] + y[3,3,2] + e[3,3,2] >= 0
 fire_spread_3_3_4_3_1: y[3,3,2] - y[4,3,1] + e[3,3,2] >= 0
 fire_spread_3_3_3_2_1: - y[3,2,1] + y[3,3,2] + e[3,3,2] >= 0
 fire_spread_3_3_3_4_1: y[3,3,2] - y[3,4,1] + e[3,3,2] >= 0
 fire_ub_3_3_1: - y[2,3,1] - y[3,2,1] - y[3,3,1] + y[3,3,2] - y[3,4,1]
   - y[4,3,1] <= 0
 fire_persist_3_3_2: - y[3,3,2] + y[3,3,3] + e[3,3,3] >= 0
 fire_spread_3_3_2_3_2: - y[2,3,2] + y[3,3,3] + e[3,3,3] >= 0
 fire_spread_3_3_4_3_2: y[3,3,3] - y[4,3,2] + e[3,3,3] >= 0
 fire_spread_3_3_3_2_2: - y[3,2,2] + y[3,3,3] + e[3,3,3] >= 0
 fire_spread_3_3_3_4_2: y[3,3,3] - y[3,4,2] + e[3,3,3] >= 0
 fire_ub_3_3_2: - y[2,3,2] - y[3,2,2] - y[3,3,2] + y[3,3,3] - y[3,4,2]
   - y[4,3,2] <= 0
 fire_persist_3_3_3: - y[3,3,3] + y[3,3,4] + e[3,3,4] >= 0
 fire_spread_3_3_2_3_3: - y[2,3,3] + y[3,3,4] + e[3,3,4] >= 0
 fire_spread_3_3_4_3_3: y[3,3,4] - y[4,3,3] + e[3,3,4] >= 0
 fire_spread_3_3_3_2_3: - y[3,2,3] + y[3,3,4] + e[3,3,4] >= 0
 fire_spread_3_3_3_4_3: y[3,3,4] - y[3,4,3] + e[3,3,4] >= 0
 fire_ub_3_3_3: - y[2,3,3] - y[3,2,3] - y[3,3,3] + y[3,3,4] - y[3,4,3]
   - y[4,3,3] <= 0
 fire_persist_3_3_4: - y[3,3,4] + y[3,3,5] + e[3,3,5] >= 0
 fire_spread_3_3_2_3_4: - y[2,3,4] + y[3,3,5] + e[3,3,5] >= 0
 fire_spread_3_3_4_3_4: y[3,3,5] - y[4,3,4] + e[3,3,5] >= 0
 fire_spread_3_3_3_2_4: - y[3,2,4] + y[3,3,5] + e[3,3,5] >= 0
 fire_spread_3_3_3_4_4: y[3,3,5] - y[3,4,4] + e[3,3,5] >= 0
 fire_ub_3_3_4: - y[2,3,4] - y[3,2,4] - y[3,3,4] + y[3,3,5] - y[3,4,4]
   - y[4,3,4] <= 0
 fire_persist_3_3_5: - y[3,3,5] + y[3,3,6] + e[3,3,6] >= 0
 fire_spread_3_3_2_3_5: - y[2,3,5] + y[3,3,6] + e[3,3,6] >= 0
 fire_spread_3_3_4_3_5: y[3,3,6] - y[4,3,5] + e[3,3,6] >= 0
 fire_spread_3_3_3_2_5: - y[3,2,5] + y[3,3,6] + e[3,3,6] >= 0
 fire_spread_3_3_3_4_5: y[3,3,6] - y[3,4,5] + e[3,3,6] >= 0
 fire_ub_3_3_5: - y[2,3,5] - y[3,2,5] - y[3,3,5] + y[3,3,6] - y[3,4,5]
   - y[4,3,5] <= 0
 fire_persist_3_3_6: - y[3,3,6] + y[3,3,7] + e[3,3,7] >= 0
 fire_spread_3_3_2_3_6: - y[2,3,6] + y[3,3,7] + e[3,3,7] >= 0
 fire_spread_3_3_4_3_6: y[3,3,7] - y[4,3,6] + e[3,3,7] >= 0
 fire_spread_3_3_3_2_6: - y[3,2,6] + y[3,3,7] + e[3,3,7] >= 0
 fire_spread_3_3_3_4_6: y[3,3,7] - y[3,4,6] + e[3,3,7] >= 0
 fire_ub_3_3_6: - y[2,3,6] - y[3,2,6] - y[3,3,6] + y[3,3,7] - y[3,4,6]
   - y[4,3,6] <= 0
 fire_persist_3_3_7: - y[3,3,7] + y[3,3,8] + e[3,3,8] >= 0
 fire_spread_3_3_2_3_7: - y[2,3,7] + y[3,3,8] + e[3,3,8] >= 0
 fire_spread_3_3_4_3_7: y[3,3,8] - y[4,3,7] + e[3,3,8] >= 0
 fire_spread_3_3_3_2_7: - y[3,2,7] + y[3,3,8] + e[3,3,8] >= 0
 fire_spread_3_3_3_4_7: y[3,3,8] - y[3,4,7] + e[3,3,8] >= 0
 fire_ub_3_3_7: - y[2,3,7] - y[3,2,7] - y[3,3,7] + y[3,3,8] - y[3,4,7]
   - y[4,3,7] <= 0
 fire_persist_3_3_8: - y[3,3,8] + y[3,3,9] + e[3,3,9] >= 0
 fire_spread_3_3_2_3_8: - y[2,3,8] + y[3,3,9] + e[3,3,9] >= 0
 fire_spread_3_3_4_3_8: y[3,3,9] - y[4,3,8] + e[3,3,9] >= 0
 fire_spread_3_3_3_2_8: - y[3,2,8] + y[3,3,9] + e[3,3,9] >= 0
 fire_spread_3_3_3_4_8: y[3,3,9] - y[3,4,8] + e[3,3,9] >= 0
 fire_ub_3_3_8: - y[2,3,8] - y[3,2,8] - y[3,3,8] + y[3,3,9] - y[3,4,8]
   - y[4,3,8] <= 0
 fire_persist_3_4_0: - y[3,4,0] + y[3,4,1] + e[3,4,1] >= 0
 fire_spread_3_4_2_4_0: - y[2,4,0] + y[3,4,1] + e[3,4,1] >= 0
 fire_spread_3_4_4_4_0: y[3,4,1] - y[4,4,0] + e[3,4,1] >= 0
 fire_spread_3_4_3_3_0: - y[3,3,0] + y[3,4,1] + e[3,4,1] >= 0
 fire_ub_3_4_0: - y[2,4,0] - y[3,3,0] - y[3,4,0] + y[3,4,1] - y[4,4,0]
   <= 0
 fire_persist_3_4_1: - y[3,4,1] + y[3,4,2] + e[3,4,2] >= 0
 fire_spread_3_4_2_4_1: - y[2,4,1] + y[3,4,2] + e[3,4,2] >= 0
 fire_spread_3_4_4_4_1: y[3,4,2] - y[4,4,1] + e[3,4,2] >= 0
 fire_spread_3_4_3_3_1: - y[3,3,1] + y[3,4,2] + e[3,4,2] >= 0
 fire_ub_3_4_1: - y[2,4,1] - y[3,3,1] - y[3,4,1] + y[3,4,2] - y[4,4,1]
   <= 0
 fire_persist_3_4_2: - y[3,4,2] + y[3,4,3] + e[3,4,3] >= 0
 fire_spread_3_4_2_4_2: - y[2,4,2] + y[3,4,3] + e[3,4,3] >= 0
 fire_spread_3_4_4_4_2: y[3,4,3] - y[4,4,2] + e[3,4,3] >= 0
 fire_spread_3_4_3_3_2: - y[3,3,2] + y[3,4,3] + e[3,4,3] >= 0
 fire_ub_3_4_2: - y[2,4,2] - y[3,3,2] - y[3,4,2] + y[3,4,3] - y[4,4,2]
   <= 0
 fire_persist_3_4_3: - y[3,4,3] + y[3,4,4] + e[3,4,4] >= 0
 fire_spread_3_4_2_4_3: - y[2,4,3] + y[3,4,4] + e[3,4,4] >= 0
 fire_spread_3_4_4_4_3: y[3,4,4] - y[4,4,3] + e[3,4,4] >= 0
 fire_spread_3_4_3_3_3: - y[3,3,3] + y[3,4,4] + e[3,4,4] >= 0
 fire_ub_3_4_3: - y[2,4,3] - y[3,3,3] - y[3,4,3] + y[3,4,4] - y[4,4,3]
   <= 0
 fire_persist_3_4_4: - y[3,4,4] + y[3,4,5] + e[3,4,5] >= 0
 fire_spread_3_4_2_4_4: - y[2,4,4] + y[3,4,5] + e[3,4,5] >= 0
 fire_spread_3_4_4_4_4: y[3,4,5] - y[4,4,4] + e[3,4,5] >= 0
 fire_spread_3_4_3_3_4: - y[3,3,4] + y[3,4,5] + e[3,4,5] >= 0
 fire_ub_3_4_4: - y[2,4,4] - y[3,3,4] - y[3,4,4] + y[3,4,5] - y[4,4,4]
   <= 0
 fire_persist_3_4_5: - y[3,4,5] + y[3,4,6] + e[3,4,6] >= 0
 fire_spread_3_4_2_4_5: - y[2,4,5] + y[3,4,6] + e[3,4,6] >= 0
 fire_spread_3_4_4_4_5: y[3,4,6] - y[4,4,5] + e[3,4,6] >= 0
 fire_spread_3_4_3_3_5: - y[3,3,5] + y[3,4,6] + e[3,4,6] >= 0
 fire_ub_3_4_5: - y[2,4,5] - y[3,3,5] - y[3,4,5] + y[3,4,6] - y[4,4,5]
   <= 0
 fire_persist_3_4_6: - y[3,4,6] + y[3,4,7] + e[3,4,7] >= 0
 fire_spread_3_4_2_4_6: - y[2,4,6] + y[3,4,7] + e[3,4,7] >= 0
 fire_spread_3_4_4_4_6: y[3,4,7] - y[4,4,6] + e[3,4,7] >= 0
 fire_spread_3_4_3_3_6: - y[3,3,6] + y[3,4,7] + e[3,4,7] >= 0
 fire_ub_3_4_6: - y[2,4,6] - y[3,3,6] - y[3,4,6] + y[3,4,7] - y[4,4,6]
   <= 0
 fire_persist_3_4_7: - y[3,4,7] + y[3,4,8] + e[3,4,8] >= 0
 fire_spread_3_4_2_4_7: - y[2,4,7] + y[3,4,8] + e[3,4,8] >= 0
 fire_spread_3_4_4_4_7: y[3,4,8] - y[4,4,7] + e[3,4,8] >= 0
 fire_spread_3_4_3_3_7: - y[3,3,7] + y[3,4,8] + e[3,4,8] >= 0
 fire_ub_3_4_7: - y[2,4,7] - y[3,3,7] - y[3,4,7] + y[3,4,8] - y[4,4,7]
   <= 0
 fire_persist_3_4_8: - y[3,4,8] + y[3,4,9] + e[3,4,9] >= 0
 fire_spread_3_4_2_4_8: - y[2,4,8] + y[3,4,9] + e[3,4,9] >= 0
 fire_spread_3_4_4_4_8: y[3,4,9] - y[4,4,8] + e[3,4,9] >= 0
 fire_spread_3_4_3_3_8: - y[3,3,8] + y[3,4,9] + e[3,4,9] >= 0
 fire_ub_3_4_8: - y[2,4,8] - y[3,3,8] - y[3,4,8] + y[3,4,9] - y[4,4,8]
   <= 0
 fire_persist_4_0_0: - y[4,0,0] + y[4,0,1] + e[4,0,1] >= 0
 fire_spread_4_0_3_0_0: - y[3,0,0] + y[4,0,1] + e[4,0,1] >= 0
 fire_spread_4_0_4_1_0: y[4,0,1] - y[4,1,0] + e[4,0,1] >= 0
 fire_ub_4_0_0: - y[3,0,0] - y[4,0,0] + y[4,0,1] - y[4,1,0] <= 0
 fire_persist_4_0_1: - y[4,0,1] + y[4,0,2] + e[4,0,2] >= 0
 fire_spread_4_0_3_0_1: - y[3,0,1] + y[4,0,2] + e[4,0,2] >= 0
 fire_spread_4_0_4_1_1: y[4,0,2] - y[4,1,1] + e[4,0,2] >= 0
 fire_ub_4_0_1: - y[3,0,1] - y[4,0,1] + y[4,0,2] - y[4,1,1] <= 0
 fire_persist_4_0_2: - y[4,0,2] + y[4,0,3] + e[4,0,3] >= 0
 fire_spread_4_0_3_0_2: - y[3,0,2] + y[4,0,3] + e[4,0,3] >= 0
 fire_spread_4_0_4_1_2: y[4,0,3] - y[4,1,2] + e[4,0,3] >= 0
 fire_ub_4_0_2: - y[3,0,2] - y[4,0,2] + y[4,0,3] - y[4,1,2] <= 0
 fire_persist_4_0_3: - y[4,0,3] + y[4,0,4] + e[4,0,4] >= 0
 fire_spread_4_0_3_0_3: - y[3,0,3] + y[4,0,4] + e[4,0,4] >= 0
 fire_spread_4_0_4_1_3: y[4,0,4] - y[4,1,3] + e[4,0,4] >= 0
 fire_ub_4_0_3: - y[3,0,3] - y[4,0,3] + y[4,0,4] - y[4,1,3] <= 0
 fire_persist_4_0_4: - y[4,0,4] + y[4,0,5] + e[4,0,5] >= 0
 fire_spread_4_0_3_0_4: - y[3,0,4] + y[4,0,5] + e[4,0,5] >= 0
 fire_spread_4_0_4_1_4: y[4,0,5] - y[4,1,4] + e[4,0,5] >= 0
 fire_ub_4_0_4: - y[3,0,4] - y[4,0,4] + y[4,0,5] - y[4,1,4] <= 0
 fire_persist_4_0_5: - y[4,0,5] + y[4,0,6] + e[4,0,6] >= 0
 fire_spread_4_0_3_0_5: - y[3,0,5] + y[4,0,6] + e[4,0,6] >= 0
 fire_spread_4_0_4_1_5: y[4,0,6] - y[4,1,5] + e[4,0,6] >= 0
 fire_ub_4_0_5: - y[3,0,5] - y[4,0,5] + y[4,0,6] - y[4,1,5] <= 0
 fire_persist_4_0_6: - y[4,0,6] + y[4,0,7] + e[4,0,7] >= 0
 fire_spread_4_0_3_0_6: - y[3,0,6] + y[4,0,7] + e[4,0,7] >= 0
 fire_spread_4_0_4_1_6: y[4,0,7] - y[4,1,6] + e[4,0,7] >= 0
 fire_ub_4_0_6: - y[3,0,6] - y[4,0,6] + y[4,0,7] - y[4,1,6] <= 0
 fire_persist_4_0_7: - y[4,0,7] + y[4,0,8] + e[4,0,8] >= 0
 fire_spread_4_0_3_0_7: - y[3,0,7] + y[4,0,8] + e[4,0,8] >= 0
 fire_spread_4_0_4_1_7: y[4,0,8] - y[4,1,7] + e[4,0,8] >= 0
 fire_ub_4_0_7: - y[3,0,7] - y[4,0,7] + y[4,0,8] - y[4,1,7] <= 0
 fire_persist_4_0_8: - y[4,0,8] + y[4,0,9] + e[4,0,9] >= 0
 fire_spread_4_0_3_0_8: - y[3,0,8] + y[4,0,9] + e[4,0,9] >= 0
 fire_spread_4_0_4_1_8: y[4,0,9] - y[4,1,8] + e[4,0,9] >= 0
 fire_ub_4_0_8: - y[3,0,8] - y[4,0,8] + y[4,0,9] - y[4,1,8] <= 0
 fire_persist_4_1_0: - y[4,1,0] + y[4,1,1] + e[4,1,1] >= 0
 fire_spread_4_1_3_1_0: - y[3,1,0] + y[4,1,1] + e[4,1,1] >= 0
 fire_spread_4_1_4_0_0: - y[4,0,0] + y[4,1,1] + e[4,1,1] >= 0
 fire_spread_4_1_4_2_0: y[4,1,1] - y[4,2,0] + e[4,1,1] >= 0
 fire_ub_4_1_0: - y[3,1,0] - y[4,0,0] - y[4,1,0] + y[4,1,1] - y[4,2,0]
   <= 0
 fire_persist_4_1_1: - y[4,1,1] + y[4,1,2] + e[4,1,2] >= 0
 fire_spread_4_1_3_1_1: - y[3,1,1] + y[4,1,2] + e[4,1,2] >= 0
 fire_spread_4_1_4_0_1: - y[4,0,1] + y[4,1,2] + e[4,1,2] >= 0
 fire_spread_4_1_4_2_1: y[4,1,2] - y[4,2,1] + e[4,1,2] >= 0
 fire_ub_4_1_1: - y[3,1,1] - y[4,0,1] - y[4,1,1] + y[4,1,2] - y[4,2,1]
   <= 0
 fire_persist_4_1_2: - y[4,1,2] + y[4,1,3] + e[4,1,3] >= 0
 fire_spread_4_1_3_1_2: - y[3,1,2] + y[4,1,3] + e[4,1,3] >= 0
 fire_spread_4_1_4_0_2: - y[4,0,2] + y[4,1,3] + e[4,1,3] >= 0
 fire_spread_4_1_4_2_2: y[4,1,3] - y[4,2,2] + e[4,1,3] >= 0
 fire_ub_4_1_2: - y[3,1,2] - y[4,0,2] - y[4,1,2] + y[4,1,3] - y[4,2,2]
   <= 0
 fire_persist_4_1_3: - y[4,1,3] + y[4,1,4] + e[4,1,4] >= 0
 fire_spread_4_1_3_1_3: - y[3,1,3] + y[4,1,4] + e[4,1,4] >= 0
 fire_spread_4_1_4_0_3: - y[4,0,3] + y[4,1,4] + e[4,1,4] >= 0
 fire_spread_4_1_4_2_3: y[4,1,4] - y[4,2,3] + e[4,1,4] >= 0
 fire_ub_4_1_3: - y[3,1,3] - y[4,0,3] - y[4,1,3] + y[4,1,4] - y[4,2,3]
   <= 0
 fire_persist_4_1_4: - y[4,1,4] + y[4,1,5] + e[4,1,5] >= 0
 fire_spread_4_1_3_1_4: - y[3,1,4] + y[4,1,5] + e[4,1,5] >= 0
 fire_spread_4_1_4_0_4: - y[4,0,4] + y[4,1,5] + e[4,1,5] >= 0
 fire_spread_4_1_4_2_4: y[4,1,5] - y[4,2,4] + e[4,1,5] >= 0
 fire_ub_4_1_4: - y[3,1,4] - y[4,0,4] - y[4,1,4] + y[4,1,5] - y[4,2,4]
   <= 0
 fire_persist_4_1_5: - y[4,1,5] + y[4,1,6] + e[4,1,6] >= 0
 fire_spread_4_1_3_1_5: - y[3,1,5] + y[4,1,6] + e[4,1,6] >= 0
 fire_spread_4_1_4_0_5: - y[4,0,5] + y[4,1,6] + e[4,1,6] >= 0
 fire_spread_4_1_4_2_5: y[4,1,6] - y[4,2,5] + e[4,1,6] >= 0
 fire_ub_4_1_5: - y[3,1,5] - y[4,0,5] - y[4,1,5] + y[4,1,6] - y[4,2,5]
   <= 0
 fire_persist_4_1_6: - y[4,1,6] + y[4,1,7] + e[4,1,7] >= 0
 fire_spread_4_1_3_1_6: - y[3,1,6] + y[4,1,7] + e[4,1,7] >= 0
 fire_spread_4_1_4_0_6: - y[4,0,6] + y[4,1,7] + e[4,1,7] >= 0
 fire_spread_4_1_4_2_6: y[4,1,7] - y[4,2,6] + e[4,1,7] >= 0
 fire_ub_4_1_6: - y[3,1,6] - y[4,0,6] - y[4,1,6] + y[4,1,7] - y[4,2,6]
   <= 0
 fire_persist_4_1_7: - y[4,1,7] + y[4,1,8] + e[4,1,8] >= 0
 fire_spread_4_1_3_1_7: - y[3,1,7] + y[4,1,8] + e[4,1,8] >= 0
 fire_spread_4_1_4_0_7: - y[4,0,7] + y[4,1,8] + e[4,1,8] >= 0
 fire_spread_4_1_4_2_7: y[4,1,8] - y[4,2,7] + e[4,1,8] >= 0
 fire_ub_4_1_7: - y[3,1,7] - y[4,0,7] - y[4,1,7] + y[4,1,8] - y[4,2,7]
   <= 0
 fire_persist_4_1_8: - y[4,1,8] + y[4,1,9] + e[4,1,9] >= 0
 fire_spread_4_1_3_1_8: - y[3,1,8] + y[4,1,9] + e[4,1,9] >= 0
 fire_spread_4_1_4_0_8: - y[4,0,8] + y[4,1,9] + e[4,1,9] >= 0
 fire_spread_4_1_4_2_8: y[4,1,9] - y[4,2,8] + e[4,1,9] >= 0
 fire_ub_4_1_8: - y[3,1,8] - y[4,0,8] - y[4,1,8] + y[4,1,9] - y[4,2,8]
   <= 0
 fire_persist_4_2_0: - y[4,2,0] + y[4,2,1] + e[4,2,1] >= 0
 fire_spread_4_2_3_2_0: - y[3,2,0] + y[4,2,1] + e[4,2,1] >= 0
 fire_spread_4_2_4_1_0: - y[4,1,0] + y[4,2,1] + e[4,2,1] >= 0
 fire_spread_4_2_4_3_0: y[4,2,1] - y[4,3,0] + e[4,2,1] >= 0
 fire_ub_4_2_0: - y[3,2,0] - y[4,1,0] - y[4,2,0] + y[4,2,1] - y[4,3,0]
   <= 0
 fire_persist_4_2_1: - y[4,2,1] + y[4,2,2] + e[4,2,2] >= 0
 fire_spread_4_2_3_2_1: - y[3,2,1] + y[4,2,2] + e[4,2,2] >= 0
 fire_spread_4_2_4_1_1: - y[4,1,1] + y[4,2,2] + e[4,2,2] >= 0
 fire_spread_4_2_4_3_1: y[4,2,2] - y[4,3,1] + e[4,2,2] >= 0
 fire_ub_4_2_1: - y[3,2,1] - y[4,1,1] - y[4,2,1] + y[4,2,2] - y[4,3,1]
   <= 0
 fire_persist_4_2_2: - y[4,2,2] + y[4,2,3] + e[4,2,3] >= 0
 fire_spread_4_2_3_2_2: - y[3,2,2] + y[4,2,3] + e[4,2,3] >= 0
 fire_spread_4_2_4_1_2: - y[4,1,2] + y[4,2,3] + e[4,2,3] >= 0
 fire_spread_4_2_4_3_2: y[4,2,3] - y[4,3,2] + e[4,2,3] >= 0
 fire_ub_4_2_2: - y[3,2,2] - y[4,1,2] - y[4,2,2] + y[4,2,3] - y[4,3,2]
   <= 0
 fire_persist_4_2_3: - y[4,2,3] + y[4,2,4] + e[4,2,4] >= 0
 fire_spread_4_2_3_2_3: - y[3,2,3] + y[4,2,4] + e[4,2,4] >= 0
 fire_spread_4_2_4_1_3: - y[4,1,3] + y[4,2,4] + e[4,2,4] >= 0
 fire_spread_4_2_4_3_3: y[4,2,4] - y[4,3,3] + e[4,2,4] >= 0
 fire_ub_4_2_3: - y[3,2,3] - y[4,1,3] - y[4,2,3] + y[4,2,4] - y[4,3,3]
   <= 0
 fire_persist_4_2_4: - y[4,2,4] + y[4,2,5] + e[4,2,5] >= 0
 fire_spread_4_2_3_2_4: - y[3,2,4] + y[4,2,5] + e[4,2,5] >= 0
 fire_spread_4_2_4_1_4: - y[4,1,4] + y[4,2,5] + e[4,2,5] >= 0
 fire_spread_4_2_4_3_4: y[4,2,5] - y[4,3,4] + e[4,2,5] >= 0
 fire_ub_4_2_4: - y[3,2,4] - y[4,1,4] - y[4,2,4] + y[4,2,5] - y[4,3,4]
   <= 0
 fire_persist_4_2_5: - y[4,2,5] + y[4,2,6] + e[4,2,6] >= 0
 fire_spread_4_2_3_2_5: - y[3,2,5] + y[4,2,6] + e[4,2,6] >= 0
 fire_spread_4_2_4_1_5: - y[4,1,5] + y[4,2,6] + e[4,2,6] >= 0
 fire_spread_4_2_4_3_5: y[4,2,6] - y[4,3,5] + e[4,2,6] >= 0
 fire_ub_4_2_5: - y[3,2,5] - y[4,1,5] - y[4,2,5] + y[4,2,6] - y[4,3,5]
   <= 0
 fire_persist_4_2_6: - y[4,2,6] + y[4,2,7] + e[4,2,7] >= 0
 fire_spread_4_2_3_2_6: - y[3,2,6] + y[4,2,7] + e[4,2,7] >= 0
 fire_spread_4_2_4_1_6: - y[4,1,6] + y[4,2,7] + e[4,2,7] >= 0
 fire_spread_4_2_4_3_6: y[4,2,7] - y[4,3,6] + e[4,2,7] >= 0
 fire_ub_4_2_6: - y[3,2,6] - y[4,1,6] - y[4,2,6] + y[4,2,7] - y[4,3,6]
   <= 0
 fire_persist_4_2_7: - y[4,2,7] + y[4,2,8] + e[4,2,8] >= 0
 fire_spread_4_2_3_2_7: - y[3,2,7] + y[4,2,8] + e[4,2,8] >= 0
 fire_spread_4_2_4_1_7: - y[4,1,7] + y[4,2,8] + e[4,2,8] >= 0
 fire_spread_4_2_4_3_7: y[4,2,8] - y[4,3,7] + e[4,2,8] >= 0
 fire_ub_4_2_7: - y[3,2,7] - y[4,1,7] - y[4,2,7] + y[4,2,8] - y[4,3,7]
   <= 0
 fire_persist_4_2_8: - y[4,2,8] + y[4,2,9] + e[4,2,9] >= 0
 fire_spread_4_2_3_2_8: - y[3,2,8] + y[4,2,9] + e[4,2,9] >= 0
 fire_spread_4_2_4_1_8: - y[4,1,8] + y[4,2,9] + e[4,2,9] >= 0
 fire_spread_4_2_4_3_8: y[4,2,9] - y[4,3,8] + e[4,2,9] >= 0
 fire_ub_4_2_8: - y[3,2,8] - y[4,1,8] - y[4,2,8] + y[4,2,9] - y[4,3,8]
   <= 0
 fire_persist_4_3_0: - y[4,3,0] + y[4,3,1] + e[4,3,1] >= 0
 fire_spread_4_3_3_3_0: - y[3,3,0] + y[4,3,1] + e[4,3,1] >= 0
 fire_spread_4_3_4_2_0: - y[4,2,0] + y[4,3,1] + e[4,3,1] >= 0
 fire_spread_4_3_4_4_0: y[4,3,1] - y[4,4,0] + e[4,3,1] >= 0
 fire_ub_4_3_0: - y[3,3,0] - y[4,2,0] - y[4,3,0] + y[4,3,1] - y[4,4,0]
   <= 0
 fire_persist_4_3_1: - y[4,3,1] + y[4,3,2] + e[4,3,2] >= 0
 fire_spread_4_3_3_3_1: - y[3,3,1] + y[4,3,2] + e[4,3,2] >= 0
 fire_spread_4_3_4_2_1: - y[4,2,1] + y[4,3,2] + e[4,3,2] >= 0
 fire_spread_4_3_4_4_1: y[4,3,2] - y[4,4,1] + e[4,3,2] >= 0
 fire_ub_4_3_1: - y[3,3,1] - y[4,2,1] - y[4,3,1] + y[4,3,2] - y[4,4,1]
   <= 0
 fire_persist_4_3_2: - y[4,3,2] + y[4,3,3] + e[4,3,3] >= 0
 fire_spread_4_3_3_3_2: - y[3,3,2] + y[4,3,3] + e[4,3,3] >= 0
 fire_spread_4_3_4_2_2: - y[4,2,2] + y[4,3,3] + e[4,3,3] >= 0
 fire_spread_4_3_4_4_2: y[4,3,3] - y[4,4,2] + e[4,3,3] >= 0
 fire_ub_4_3_2: - y[3,3,2] - y[4,2,2] - y[4,3,2] + y[4,3,3] - y[4,4,2]
   <= 0
 fire_persist_4_3_3: - y[4,3,3] + y[4,3,4] + e[4,3,4] >= 0
 fire_spread_4_3_3_3_3: - y[3,3,3] + y[4,3,4] + e[4,3,4] >= 0
 fire_spread_4_3_4_2_3: - y[4,2,3] + y[4,3,4] + e[4,3,4] >= 0
 fire_spread_4_3_4_4_3: y[4,3,4] - y[4,4,3] + e[4,3,4] >= 0
 fire_ub_4_3_3: - y[3,3,3] - y[4,2,3] - y[4,3,3] + y[4,3,4] - y[4,4,3]
   <= 0
 fire_persist_4_3_4: - y[4,3,4] + y[4,3,5] + e[4,3,5] >= 0
 fire_spread_4_3_3_3_4: - y[3,3,4] + y[4,3,5] + e[4,3,5] >= 0
 fire_spread_4_3_4_2_4: - y[4,2,4] + y[4,3,5] + e[4,3,5] >= 0
 fire_spread_4_3_4_4_4: y[4,3,5] - y[4,4,4] + e[4,3,5] >= 0
 fire_ub_4_3_4: - y[3,3,4] - y[4,2,4] - y[4,3,4] + y[4,3,5] - y[4,4,4]
   <= 0
 fire_persist_4_3_5: - y[4,3,5] + y[4,3,6] + e[4,3,6] >= 0
 fire_spread_4_3_3_3_5: - y[3,3,5] + y[4,3,6] + e[4,3,6] >= 0
 fire_spread_4_3_4_2_5: - y[4,2,5] + y[4,3,6] + e[4,3,6] >= 0
 fire_spread_4_3_4_4_5: y[4,3,6] - y[4,4,5] + e[4,3,6] >= 0
 fire_ub_4_3_5: - y[3,3,5] - y[4,2,5] - y[4,3,5] + y[4,3,6] - y[4,4,5]
   <= 0
 fire_persist_4_3_6: - y[4,3,6] + y[4,3,7] + e[4,3,7] >= 0
 fire_spread_4_3_3_3_6: - y[3,3,6] + y[4,3,7] + e[4,3,7] >= 0
 fire_spread_4_3_4_2_6: - y[4,2,6] + y[4,3,7] + e[4,3,7] >= 0
 fire_spread_4_3_4_4_6: y[4,3,7] - y[4,4,6] + e[4,3,7] >= 0
 fire_ub_4_3_6: - y[3,3,6] - y[4,2,6] - y[4,3,6] + y[4,3,7] - y[4,4,6]
   <= 0
 fire_persist_4_3_7: - y[4,3,7] + y[4,3,8] + e[4,3,8] >= 0
 fire_spread_4_3_3_3_7: - y[3,3,7] + y[4,3,8] + e[4,3,8] >= 0
 fire_spread_4_3_4_2_7: - y[4,2,7] + y[4,3,8] + e[4,3,8] >= 0
 fire_spread_4_3_4_4_7: y[4,3,8] - y[4,4,7] + e[4,3,8] >= 0
 fire_ub_4_3_7: - y[3,3,7] - y[4,2,7] - y[4,3,7] + y[4,3,8] - y[4,4,7]
   <= 0
 fire_persist_4_3_8: - y[4,3,8] + y[4,3,9] + e[4,3,9] >= 0
 fire_spread_4_3_3_3_8: - y[3,3,8] + y[4,3,9] + e[4,3,9] >= 0
 fire_spread_4_3_4_2_8: - y[4,2,8] + y[4,3,9] + e[4,3,9] >= 0
 fire_spread_4_3_4_4_8: y[4,3,9] - y[4,4,8] + e[4,3,9] >= 0
 fire_ub_4_3_8: - y[3,3,8] - y[4,2,8] - y[4,3,8] + y[4,3,9] - y[4,4,8]
   <= 0
 fire_persist_4_4_0: - y[4,4,0] + y[4,4,1] + e[4,4,1] >= 0
 fire_spread_4_4_3_4_0: - y[3,4,0] + y[4,4,1] + e[4,4,1] >= 0
 fire_spread_4_4_4_3_0: - y[4,3,0] + y[4,4,1] + e[4,4,1] >= 0
 fire_ub_4_4_0: - y[3,4,0] - y[4,3,0] - y[4,4,0] + y[4,4,1] <= 0
 fire_persist_4_4_1: - y[4,4,1] + y[4,4,2] + e[4,4,2] >= 0
 fire_spread_4_4_3_4_1: - y[3,4,1] + y[4,4,2] + e[4,4,2] >= 0
 fire_spread_4_4_4_3_1: - y[4,3,1] + y[4,4,2] + e[4,4,2] >= 0
 fire_ub_4_4_1: - y[3,4,1] - y[4,3,1] - y[4,4,1] + y[4,4,2] <= 0
 fire_persist_4_4_2: - y[4,4,2] + y[4,4,3] + e[4,4,3] >= 0
 fire_spread_4_4_3_4_2: - y[3,4,2] + y[4,4,3] + e[4,4,3] >= 0
 fire_spread_4_4_4_3_2: - y[4,3,2] + y[4,4,3] + e[4,4,3] >= 0
 fire_ub_4_4_2: - y[3,4,2] - y[4,3,2] - y[4,4,2] + y[4,4,3] <= 0
 fire_persist_4_4_3: - y[4,4,3] + y[4,4,4] + e[4,4,4] >= 0
 fire_spread_4_4_3_4_3: - y[3,4,3] + y[4,4,4] + e[4,4,4] >= 0
 fire_spread_4_4_4_3_3: - y[4,3,3] + y[4,4,4] + e[4,4,4] >= 0
 fire_ub_4_4_3: - y[3,4,3] - y[4,3,3] - y[4,4,3] + y[4,4,4] <= 0
 fire_persist_4_4_4: - y[4,4,4] + y[4,4,5] + e[4,4,5] >= 0
 fire_spread_4_4_3_4_4: - y[3,4,4] + y[4,4,5] + e[4,4,5] >= 0
 fire_spread_4_4_4_3_4: - y[4,3,4] + y[4,4,5] + e[4,4,5] >= 0
 fire_ub_4_4_4: - y[3,4,4] - y[4,3,4] - y[4,4,4] + y[4,4,5] <= 0
 fire_persist_4_4_5: - y[4,4,5] + y[4,4,6] + e[4,4,6] >= 0
 fire_spread_4_4_3_4_5: - y[3,4,5] + y[4,4,6] + e[4,4,6] >= 0
 fire_spread_4_4_4_3_5: - y[4,3,5] + y[4,4,6] + e[4,4,6] >= 0
 fire_ub_4_4_5: - y[3,4,5] - y[4,3,5] - y[4,4,5] + y[4,4,6] <= 0
 fire_persist_4_4_6: - y[4,4,6] + y[4,4,7] + e[4,4,7] >= 0
 fire_spread_4_4_3_4_6: - y[3,4,6] + y[4,4,7] + e[4,4,7] >= 0
 fire_spread_4_4_4_3_6: - y[4,3,6] + y[4,4,7] + e[4,4,7] >= 0
 fire_ub_4_4_6: - y[3,4,6] - y[4,3,6] - y[4,4,6] + y[4,4,7] <= 0
 fire_persist_4_4_7: - y[4,4,7] + y[4,4,8] + e[4,4,8] >= 0
 fire_spread_4_4_3_4_7: - y[3,4,7] + y[4,4,8] + e[4,4,8] >= 0
 fire_spread_4_4_4_3_7: - y[4,3,7] + y[4,4,8] + e[4,4,8] >= 0
 fire_ub_4_4_7: - y[3,4,7] - y[4,3,7] - y[4,4,7] + y[4,4,8] <= 0
 fire_persist_4_4_8: - y[4,4,8] + y[4,4,9] + e[4,4,9] >= 0
 fire_spread_4_4_3_4_8: - y[3,4,8] + y[4,4,9] + e[4,4,9] >= 0
 fire_spread_4_4_4_3_8: - y[4,3,8] + y[4,4,9] + e[4,4,9] >= 0
 fire_ub_4_4_8: - y[3,4,8] - y[4,3,8] - y[4,4,8] + y[4,4,9] <= 0
Bounds
Binaries
 x[0,0,0,0] x[0,0,0,1] x[0,0,0,2] x[0,0,0,3] x[0,0,0,4] x[0,0,0,5]
 x[0,0,0,6] x[0,0,0,7] x[0,0,0,8] x[0,0,0,9] x[0,0,1,0] x[0,0,1,1]
 x[0,0,1,2] x[0,0,1,3] x[0,0,1,4] x[0,0,1,5] x[0,0,1,6] x[0,0,1,7]
 x[0,0,1,8] x[0,0,1,9] x[0,0,2,0] x[0,0,2,1] x[0,0,2,2] x[0,0,2,3]
 x[0,0,2,4] x[0,0,2,5] x[0,0,2,6] x[0,0,2,7] x[0,0,2,8] x[0,0,2,9]
 x[0,0,3,0] x[0,0,3,1] x[0,0,3,2] x[0,0,3,3] x[0,0,3,4] x[0,0,3,5]
 x[0,0,3,6] x[0,0,3,7] x[0,0,3,8] x[0,0,3,9] x[0,0,4,0] x[0,0,4,1]
 x[0,0,4,2] x[0,0,4,3] x[0,0,4,4] x[0,0,4,5] x[0,0,4,6] x[0,0,4,7]
 x[0,0,4,8] x[0,0,4,9] x[0,1,0,0] x[0,1,0,1] x[0,1,0,2] x[0,1,0,3]
 x[0,1,0,4] x[0,1,0,5] x[0,1,0,6] x[0,1,0,7] x[0,1,0,8] x[0,1,0,9]
 x[0,1,1,0] x[0,1,1,1] x[0,1,1,2] x[0,1,1,3] x[0,1,1,4] x[0,1,1,5]
 x[0,1,1,6] x[0,1,1,7] x[0,1,1,8] x[0,1,1,9] x[0,1,2,0] x[0,1,2,1]
 x[0,1,2,2] x[0,1,2,3] x[0,1,2,4] x[0,1,2,5] x[0,1,2,6] x[0,1,2,7]
 x[0,1,2,8] x[0,1,2,9] x[0,1,3,0] x[0,1,3,1] x[0,1,3,2] x[0,1,3,3]
 x[0,1,3,4] x[0,1,3,5] x[0,1,3,6] x[0,1,3,7] x[0,1,3,8] x[0,1,3,9]
 x[0,1,4,0] x[0,1,4,1] x[0,1,4,2] x[0,1,4,3] x[0,1,4,4] x[0,1,4,5]
 x[0,1,4,6] x[0,1,4,7] x[0,1,4,8] x[0,1,4,9] x[0,2,0,0] x[0,2,0,1]
 x[0,2,0,2] x[0,2,0,3] x[0,2,0,4] x[0,2,0,5] x[0,2,0,6] x[0,2,0,7]
 x[0,2,0,8] x[0,2,0,9] x[0,2,1,0] x[0,2,1,1] x[0,2,1,2] x[0,2,1,3]
 x[0,2,1,4] x[0,2,1,5] x[0,2,1,6] x[0,2,1,7] x[0,2,1,8] x[0,2,1,9]
 x[0,2,2,0] x[0,2,2,1] x[0,2,2,2] x[0,2,2,3] x[0,2,2,4] x[0,2,2,5]
 x[0,2,2,6] x[0,2,2,7] x[0,2,2,8] x[0,2,2,9] x[0,2,3,0] x[0,2,3,1]
 x[0,2,3,2] x[0,2,3,3] x[0,2,3,4] x[0,2,3,5] x[0,2,3,6] x[0,2,3,7]
 x[0,2,3,8] x[0,2,3,9] x[0,2,4,0] x[0,2,4,1] x[0,2,4,2] x[0,2,4,3]
 x[0,2,4,4] x[0,2,4,5] x[0,2,4,6] x[0,2,4,7] x[0,2,4,8] x[0,2,4,9]
 x[0,3,0,0] x[0,3,0,1] x[0,3,0,2] x[0,3,0,3] x[0,3,0,4] x[0,3,0,5]
 x[0,3,0,6] x[0,3,0,7] x[0,3,0,8] x[0,3,0,9] x[0,3,1,0] x[0,3,1,1]
 x[0,3,1,2] x[0,3,1,3] x[0,3,1,4] x[0,3,1,5] x[0,3,1,6] x[0,3,1,7]
 x[0,3,1,8] x[0,3,1,9] x[0,3,2,0] x[0,3,2,1] x[0,3,2,2] x[0,3,2,3]
 x[0,3,2,4] x[0,3,2,5] x[0,3,2,6] x[0,3,2,7] x[0,3,2,8] x[0,3,2,9]
 x[0,3,3,0] x[0,3,3,1] x[0,3,3,2] x[0,3,3,3] x[0,3,3,4] x[0,3,3,5]
 x[0,3,3,6] x[0,3,3,7] x[0,3,3,8] x[0,3,3,9] x[0,3,4,0] x[0,3,4,1]
 x[0,3,4,2] x[0,3,4,3] x[0,3,4,4] x[0,3,4,5] x[0,3,4,6] x[0,3,4,7]
 x[0,3,4,8] x[0,3,4,9] x[0,4,0,0] x[0,4,0,1] x[0,4,0,2] x[0,4,0,3]
 x[0,4,0,4] x[0,4,0,5] x[0,4,0,6] x[0,4,0,7] x[0,4,0,8] x[0,4,0,9]
 x[0,4,1,0] x[0,4,1,1] x[0,4,1,2] x[0,4,1,3] x[0,4,1,4] x[0,4,1,5]
 x[0,4,1,6] x[0,4,1,7] x[0,4,1,8] x[0,4,1,9] x[0,4,2,0] x[0,4,2,1]
 x[0,4,2,2] x[0,4,2,3] x[0,4,2,4] x[0,4,2,5] x[0,4,2,6] x[0,4,2,7]
 x[0,4,2,8] x[0,4,2,9] x[0,4,3,0] x[0,4,3,1] x[0,4,3,2] x[0,4,3,3]
 x[0,4,3,4] x[0,4,3,5] x[0,4,3,6] x[0,4,3,7] x[0,4,3,8] x[0,4,3,9]
 x[0,4,4,0] x[0,4,4,1] x[0,4,4,2] x[0,4,4,3] x[0,4,4,4] x[0,4,4,5]
 x[0,4,4,6] x[0,4,4,7] x[0,4,4,8] x[0,4,4,9] x[1,0,0,0] x[1,0,0,1]
 x[1,0,0,2] x[1,0,0,3] x[1,0,0,4] x[1,0,0,5] x[1,0,0,6] x[1,0,0,7]
 x[1,0,0,8] x[1,0,0,9] x[1,0,1,0] x[1,0,1,1] x[1,0,1,2] x[1,0,1,3]
 x[1,0,1,4] x[1,0,1,5] x[1,0,1,6] x[1,0,1,7] x[1,0,1,8] x[1,0,1,9]
 x[1,0,2,0] x[1,0,2,1] x[1,0,2,2] x[1,0,2,3] x[1,0,2,4] x[1,0,2,5]
 x[1,0,2,6] x[1,0,2,7] x[1,0,2,8] x[1,0,2,9] x[1,0,3,0] x[1,0,3,1]
 x[1,0,3,2] x[1,0,3,3] x[1,0,3,4] x[1,0,3,5] x[1,0,3,6] x[1,0,3,7]
 x[1,0,3,8] x[1,0,3,9] x[1,0,4,0] x[1,0,4,1] x[1,0,4,2] x[1,0,4,3]
 x[1,0,4,4] x[1,0,4,5] x[1,0,4,6] x[1,0,4,7] x[1,0,4,8] x[1,0,4,9]
 x[1,1,0,0] x[1,1,0,1] x[1,1,0,2] x[1,1,0,3] x[1,1,0,4] x[1,1,0,5]
 x[1,1,0,6] x[1,1,0,7] x[1,1,0,8] x[1,1,0,9] x[1,1,1,0] x[1,1,1,1]
 x[1,1,1,2] x[1,1,1,3] x[1,1,1,4] x[1,1,1,5] x[1,1,1,6] x[1,1,1,7]
 x[1,1,1,8] x[1,1,1,9] x[1,1,2,0] x[1,1,2,1] x[1,1,2,2] x[1,1,2,3]
 x[1,1,2,4] x[1,1,2,5] x[1,1,2,6] x[1,1,2,7] x[1,1,2,8] x[1,1,2,9]
 x[1,1,3,0] x[1,1,3,1] x[1,1,3,2] x[1,1,3,3] x[1,1,3,4] x[1,1,3,5]
 x[1,1,3,6] x[1,1,3,7] x[1,1,3,8] x[1,1,3,9] x[1,1,4,0] x[1,1,4,1]
 x[1,1,4,2] x[1,1,4,3] x[1,1,4,4] x[1,1,4,5] x[1,1,4,6] x[1,1,4,7]
 x[1,1,4,8] x[1,1,4,9] x[1,2,0,0] x[1,2,0,1] x[1,2,0,2] x[1,2,0,3]
 x[1,2,0,4] x[1,2,0,5] x[1,2,0,6] x[1,2,0,7] x[1,2,0,8] x[1,2,0,9]
 x[1,2,1,0] x[1,2,1,1] x[1,2,1,2] x[1,2,1,3] x[1,2,1,4] x[1,2,1,5]
 x[1,2,1,6] x[1,2,1,7] x[1,2,1,8] x[1,2,1,9] x[1,2,2,0] x[1,2,2,1]
 x[1,2,2,2] x[1,2,2,3] x[1,2,2,4] x[1,2,2,5] x[1,2,2,6] x[1,2,2,7]
 x[1,2,2,8] x[1,2,2,9] x[1,2,3,0] x[1,2,3,1] x[1,2,3,2] x[1,2,3,3]
 x[1,2,3,4] x[1,2,3,5] x[1,2,3,6] x[1,2,3,7] x[1,2,3,8] x[1,2,3,9]
 x[1,2,4,0] x[1,2,4,1] x[1,2,4,2] x[1,2,4,3] x[1,2,4,4] x[1,2,4,5]
 x[1,2,4,6] x[1,2,4,7] x[1,2,4,8] x[1,2,4,9] x[1,3,0,0] x[1,3,0,1]
 x[1,3,0,2] x[1,3,0,3] x[1,3,0,4] x[1,3,0,5] x[1,3,0,6] x[1,3,0,7]
 x[1,3,0,8] x[1,3,0,9] x[1,3,1,0] x[1,3,1,1] x[1,3,1,2] x[1,3,1,3]
 x[1,3,1,4] x[1,3,1,5] x[1,3,1,6] x[1,3,1,7] x[1,3,1,8] x[1,3,1,9]
 x[1,3,2,0] x[1,3,2,1] x[1,3,2,2] x[1,3,2,3] x[1,3,2,4] x[1,3,2,5]
 x[1,3,2,6] x[1,3,2,7] x[1,3,2,8] x[1,3,2,9] x[1,3,3,0] x[1,3,3,1]
 x[1,3,3,2] x[1,3,3,3] x[1,3,3,4] x[1,3,3,5] x[1,3,3,6] x[1,3,3,7]
 x[1,3,3,8] x[1,3,3,9] x[1,3,4,0] x[1,3,4,1] x[1,3,4,2] x[1,3,4,3]
 x[1,3,4,4] x[1,3,4,5] x[1,3,4,6] x[1,3,4,7] x[1,3,4,8] x[1,3,4,9]
 x[1,4,0,0] x[1,4,0,1] x[1,4,0,2] x[1,4,0,3] x[1,4,0,4] x[1,4,0,5]
 x[1,4,0,6] x[1,4,0,7] x[1,4,0,8] x[1,4,0,9] x[1,4,1,0] x[1,4,1,1]
 x[1,4,1,2] x[1,4,1,3] x[1,4,1,4] x[1,4,1,5] x[1,4,1,6] x[1,4,1,7]
 x[1,4,1,8] x[1,4,1,9] x[1,4,2,0] x[1,4,2,1] x[1,4,2,2] x[1,4,2,3]
 x[1,4,2,4] x[1,4,2,5] x[1,4,2,6] x[1,4,2,7] x[1,4,2,8] x[1,4,2,9]
 x[1,4,3,0] x[1,4,3,1] x[1,4,3,2] x[1,4,3,3] x[1,4,3,4] x[1,4,3,5]
 x[1,4,3,6] x[1,4,3,7] x[1,4,3,8] x[1,4,3,9] x[1,4,4,0] x[1,4,4,1]
 x[1,4,4,2] x[1,4,4,3] x[1,4,4,4] x[1,4,4,5] x[1,4,4,6] x[1,4,4,7]
 x[1,4,4,8] x[1,4,4,9] x[2,0,0,0] x[2,0,0,1] x[2,0,0,2] x[2,0,0,3]
 x[2,0,0,4] x[2,0,0,5] x[2,0,0,6] x[2,0,0,7] x[2,0,0,8] x[2,0,0,9]
 x[2,0,1,0] x[2,0,1,1] x[2,0,1,2] x[2,0,1,3] x[2,0,1,4] x[2,0,1,5]
 x[2,0,1,6] x[2,0,1,7] x[2,0,1,8] x[2,0,1,9] x[2,0,2,0] x[2,0,2,1]
 x[2,0,2,2] x[2,0,2,3] x[2,0,2,4] x[2,0,2,5] x[2,0,2,6] x[2,0,2,7]
 x[2,0,2,8] x[2,0,2,9] x[2,0,3,0] x[2,0,3,1] x[2,0,3,2] x[2,0,3,3]
 x[2,0,3,4] x[2,0,3,5] x[2,0,3,6] x[2,0,3,7] x[2,0,3,8] x[2,0,3,9]
 x[2,0,4,0] x[2,0,4,1] x[2,0,4,2] x[2,0,4,3] x[2,0,4,4] x[2,0,4,5]
 x[2,0,4,6] x[2,0,4,7] x[2,0,4,8] x[2,0,4,9] x[2,1,0,0] x[2,1,0,1]
 x[2,1,0,2] x[2,1,0,3] x[2,1,0,4] x[2,1,0,5] x[2,1,0,6] x[2,1,0,7]
 x[2,1,0,8] x[2,1,0,9] x[2,1,1,0] x[2,1,1,1] x[2,1,1,2] x[2,1,1,3]
 x[2,1,1,4] x[2,1,1,5] x[2,1,1,6] x[2,1,1,7] x[2,1,1,8] x[2,1,1,9]
 x[2,1,2,0] x[2,1,2,1] x[2,1,2,2] x[2,1,2,3] x[2,1,2,4] x[2,1,2,5]
 x[2,1,2,6] x[2,1,2,7] x[2,1,2,8] x[2,1,2,9] x[2,1,3,0] x[2,1,3,1]
 x[2,1,3,2] x[2,1,3,3] x[2,1,3,4] x[2,1,3,5] x[2,1,3,6] x[2,1,3,7]
 x[2,1,3,8] x[2,1,3,9] x[2,1,4,0] x[2,1,4,1] x[2,1,4,2] x[2,1,4,3]
 x[2,1,4,4] x[2,1,4,5] x[2,1,4,6] x[2,1,4,7] x[2,1,4,8] x[2,1,4,9]
 x[2,2,0,0] x[2,2,0,1] x[2,2,0,2] x[2,2,0,3] x[2,2,0,4] x[2,2,0,5]
 x[2,2,0,6] x[2,2,0,7] x[2,2,0,8] x[2,2,0,9] x[2,2,1,0] x[2,2,1,1]
 x[2,2,1,2] x[2,2,1,3] x[2,2,1,4] x[2,2,1,5] x[2,2,1,6] x[2,2,1,7]
 x[2,2,1,8] x[2,2,1,9] x[2,2,2,0] x[2,2,2,1] x[2,2,2,2] x[2,2,2,3]
 x[2,2,2,4] x[2,2,2,5] x[2,2,2,6] x[2,2,2,7] x[2,2,2,8] x[2,2,2,9]
 x[2,2,3,0] x[2,2,3,1] x[2,2,3,2] x[2,2,3,3] x[2,2,3,4] x[2,2,3,5]
 x[2,2,3,6] x[2,2,3,7] x[2,2,3,8] x[2,2,3,9] x[2,2,4,0] x[2,2,4,1]
 x[2,2,4,2] x[2,2,4,3] x[2,2,4,4] x[2,2,4,5] x[2,2,4,6] x[2,2,4,7]
 x[2,2,4,8] x[2,2,4,9] x[2,3,0,0] x[2,3,0,1] x[2,3,0,2] x[2,3,0,3]
 x[2,3,0,4] x[2,3,0,5] x[2,3,0,6] x[2,3,0,7] x[2,3,0,8] x[2,3,0,9]
 x[2,3,1,0] x[2,3,1,1] x[2,3,1,2] x[2,3,1,3] x[2,3,1,4] x[2,3,1,5]
 x[2,3,1,6] x[2,3,1,7] x[2,3,1,8] x[2,3,1,9] x[2,3,2,0] x[2,3,2,1]
 x[2,3,2,2] x[2,3,2,3] x[2,3,2,4] x[2,3,2,5] x[2,3,2,6] x[2,3,2,7]
 x[2,3,2,8] x[2,3,2,9] x[2,3,3,0] x[2,3,3,1] x[2,3,3,2] x[2,3,3,3]
 x[2,3,3,4] x[2,3,3,5] x[2,3,3,6] x[2,3,3,7] x[2,3,3,8] x[2,3,3,9]
 x[2,3,4,0] x[2,3,4,1] x[2,3,4,2] x[2,3,4,3] x[2,3,4,4] x[2,3,4,5]
 x[2,3,4,6] x[2,3,4,7] x[2,3,4,8] x[2,3,4,9] x[2,4,0,0] x[2,4,0,1]
 x[2,4,0,2] x[2,4,0,3] x[2,4,0,4] x[2,4,0,5] x[2,4,0,6] x[2,4,0,7]
 x[2,4,0,8] x[2,4,0,9] x[2,4,1,0] x[2,4,1,1] x[2,4,1,2] x[2,4,1,3]
 x[2,4,1,4] x[2,4,1,5] x[2,4,1,6] x[2,4,1,7] x[2,4,1,8] x[2,4,1,9]
 x[2,4,2,0] x[2,4,2,1] x[2,4,2,2] x[2,4,2,3] x[2,4,2,4] x[2,4,2,5]
 x[2,4,2,6] x[2,4,2,7] x[2,4,2,8] x[2,4,2,9] x[2,4,3,0] x[2,4,3,1]
 x[2,4,3,2] x[2,4,3,3] x[2,4,3,4] x[2,4,3,5] x[2,4,3,6] x[2,4,3,7]
 x[2,4,3,8] x[2,4,3,9] x[2,4,4,0] x[2,4,4,1] x[2,4,4,2] x[2,4,4,3]
 x[2,4,4,4] x[2,4,4,5] x[2,4,4,6] x[2,4,4,7] x[2,4,4,8] x[2,4,4,9] y[0,0,0]
 y[0,0,1] y[0,0,2] y[0,0,3] y[0,0,4] y[0,0,5] y[0,0,6] y[0,0,7] y[0,0,8]
 y[0,0,9] y[0,1,0] y[0,1,1] y[0,1,2] y[0,1,3] y[0,1,4] y[0,1,5] y[0,1,6]
 y[0,1,7] y[0,1,8] y[0,1,9] y[0,2,0] y[0,2,1] y[0,2,2] y[0,2,3] y[0,2,4]
 y[0,2,5] y[0,2,6] y[0,2,7] y[0,2,8] y[0,2,9] y[0,3,0] y[0,3,1] y[0,3,2]
 y[0,3,3] y[0,3,4] y[0,3,5] y[0,3,6] y[0,3,7] y[0,3,8] y[0,3,9] y[0,4,0]
 y[0,4,1] y[0,4,2] y[0,4,3] y[0,4,4] y[0,4,5] y[0,4,6] y[0,4,7] y[0,4,8]
 y[0,4,9] y[1,0,0] y[1,0,1] y[1,0,2] y[1,0,3] y[1,0,4] y[1,0,5] y[1,0,6]
 y[1,0,7] y[1,0,8] y[1,0,9] y[1,1,0] y[1,1,1] y[1,1,2] y[1,1,3] y[1,1,4]
 y[1,1,5] y[1,1,6] y[1,1,7] y[1,1,8] y[1,1,9] y[1,2,0] y[1,2,1] y[1,2,2]
 y[1,2,3] y[1,2,4] y[1,2,5] y[1,2,6] y[1,2,7] y[1,2,8] y[1,2,9] y[1,3,0]
 y[1,3,1] y[1,3,2] y[1,3,3] y[1,3,4] y[1,3,5] y[1,3,6] y[1,3,7] y[1,3,8]
 y[1,3,9] y[1,4,0] y[1,4,1] y[1,4,2] y[1,4,3] y[1,4,4] y[1,4,5] y[1,4,6]
 y[1,4,7] y[1,4,8] y[1,4,9] y[2,0,0] y[2,0,1] y[2,0,2] y[2,0,3] y[2,0,4]
 y[2,0,5] y[2,0,6] y[2,0,7] y[2,0,8] y[2,0,9] y[2,1,0] y[2,1,1] y[2,1,2]
 y[2,1,3] y[2,1,4] y[2,1,5] y[2,1,6] y[2,1,7] y[2,1,8] y[2,1,9] y[2,2,0]
 y[2,2,1] y[2,2,2] y[2,2,3] y[2,2,4] y[2,2,5] y[2,2,6] y[2,2,7] y[2,2,8]
 y[2,2,9] y[2,3,0] y[2,3,1] y[2,3,2] y[2,3,3] y[2,3,4] y[2,3,5] y[2,3,6]
 y[2,3,7] y[2,3,8] y[2,3,9] y[2,4,0] y[2,4,1] y[2,4,2] y[2,4,3] y[2,4,4]
 y[2,4,5] y[2,4,6] y[2,4,7] y[2,4,8] y[2,4,9] y[3,0,0] y[3,0,1] y[3,0,2]
 y[3,0,3] y[3,0,4] y[3,0,5] y[3,0,6] y[3,0,7] y[3,0,8] y[3,0,9] y[3,1,0]
 y[3,1,1] y[3,1,2] y[3,1,3] y[3,1,4] y[3,1,5] y[3,1,6] y[3,1,7] y[3,1,8]
 y[3,1,9] y[3,2,0] y[3,2,1] y[3,2,2] y[3,2,3] y[3,2,4] y[3,2,5] y[3,2,6]
 y[3,2,7] y[3,2,8] y[3,2,9] y[3,3,0] y[3,3,1] y[3,3,2] y[3,3,3] y[3,3,4]
 y[3,3,5] y[3,3,6] y[3,3,7] y[3,3,8] y[3,3,9] y[3,4,0] y[3,4,1] y[3,4,2]
 y[3,4,3] y[3,4,4] y[3,4,5] y[3,4,6] y[3,4,7] y[3,4,8] y[3,4,9] y[4,0,0]
 y[4,0,1] y[4,0,2] y[4,0,3] y[4,0,4] y[4,0,5] y[4,0,6] y[4,0,7] y[4,0,8]
 y[4,0,9] y[4,1,0] y[4,1,1] y[4,1,2] y[4,1,3] y[4,1,4] y[4,1,5] y[4,1,6]
 y[4,1,7] y[4,1,8] y[4,1,9] y[4,2,0] y[4,2,1] y[4,2,2] y[4,2,3] y[4,2,4]
 y[4,2,5] y[4,2,6] y[4,2,7] y[4,2,8] y[4,2,9] y[4,3,0] y[4,3,1] y[4,3,2]
 y[4,3,3] y[4,3,4] y[4,3,5] y[4,3,6] y[4,3,7] y[4,3,8] y[4,3,9] y[4,4,0]
 y[4,4,1] y[4,4,2] y[4,4,3] y[4,4,4] y[4,4,5] y[4,4,6] y[4,4,7] y[4,4,8]
 y[4,4,9] e[0,0,0] e[0,0,1] e[0,0,2] e[0,0,3] e[0,0,4] e[0,0,5] e[0,0,6]
 e[0,0,7] e[0,0,8] e[0,0,9] e[0,1,0] e[0,1,1] e[0,1,2] e[0,1,3] e[0,1,4]
 e[0,1,5] e[0,1,6] e[0,1,7] e[0,1,8] e[0,1,9] e[0,2,0] e[0,2,1] e[0,2,2]
 e[0,2,3] e[0,2,4] e[0,2,5] e[0,2,6] e[0,2,7] e[0,2,8] e[0,2,9] e[0,3,0]
 e[0,3,1] e[0,3,2] e[0,3,3] e[0,3,4] e[0,3,5] e[0,3,6] e[0,3,7] e[0,3,8]
 e[0,3,9] e[0,4,0] e[0,4,1] e[0,4,2] e[0,4,3] e[0,4,4] e[0,4,5] e[0,4,6]
 e[0,4,7] e[0,4,8] e[0,4,9] e[1,0,0] e[1,0,1] e[1,0,2] e[1,0,3] e[1,0,4]
 e[1,0,5] e[1,0,6] e[1,0,7] e[1,0,8] e[1,0,9] e[1,1,0] e[1,1,1] e[1,1,2]
 e[1,1,3] e[1,1,4] e[1,1,5] e[1,1,6] e[1,1,7] e[1,1,8] e[1,1,9] e[1,2,0]
 e[1,2,1] e[1,2,2] e[1,2,3] e[1,2,4] e[1,2,5] e[1,2,6] e[1,2,7] e[1,2,8]
 e[1,2,9] e[1,3,0] e[1,3,1] e[1,3,2] e[1,3,3] e[1,3,4] e[1,3,5] e[1,3,6]
 e[1,3,7] e[1,3,8] e[1,3,9] e[1,4,0] e[1,4,1] e[1,4,2] e[1,4,3] e[1,4,4]
 e[1,4,5] e[1,4,6] e[1,4,7] e[1,4,8] e[1,4,9] e[2,0,0] e[2,0,1] e[2,0,2]
 e[2,0,3] e[2,0,4] e[2,0,5] e[2,0,6] e[2,0,7] e[2,0,8] e[2,0,9] e[2,1,0]
 e[2,1,1] e[2,1,2] e[2,1,3] e[2,1,4] e[2,1,5] e[2,1,6] e[2,1,7] e[2,1,8]
 e[2,1,9] e[2,2,0] e[2,2,1] e[2,2,2] e[2,2,3] e[2,2,4] e[2,2,5] e[2,2,6]
 e[2,2,7] e[2,2,8] e[2,2,9] e[2,3,0] e[2,3,1] e[2,3,2] e[2,3,3] e[2,3,4]
 e[2,3,5] e[2,3,6] e[2,3,7] e[2,3,8] e[2,3,9] e[2,4,0] e[2,4,1] e[2,4,2]
 e[2,4,3] e[2,4,4] e[2,4,5] e[2,4,6] e[2,4,7] e[2,4,8] e[2,4,9] e[3,0,0]
 e[3,0,1] e[3,0,2] e[3,0,3] e[3,0,4] e[3,0,5] e[3,0,6] e[3,0,7] e[3,0,8]
 e[3,0,9] e[3,1,0] e[3,1,1] e[3,1,2] e[3,1,3] e[3,1,4] e[3,1,5] e[3,1,6]
 e[3,1,7] e[3,1,8] e[3,1,9] e[3,2,0] e[3,2,1] e[3,2,2] e[3,2,3] e[3,2,4]
 e[3,2,5] e[3,2,6] e[3,2,7] e[3,2,8] e[3,2,9] e[3,3,0] e[3,3,1] e[3,3,2]
 e[3,3,3] e[3,3,4] e[3,3,5] e[3,3,6] e[3,3,7] e[3,3,8] e[3,3,9] e[3,4,0]
 e[3,4,1] e[3,4,2] e[3,4,3] e[3,4,4] e[3,4,5] e[3,4,6] e[3,4,7] e[3,4,8]
 e[3,4,9] e[4,0,0] e[4,0,1] e[4,0,2] e[4,0,3] e[4,0,4] e[4,0,5] e[4,0,6]
 e[4,0,7] e[4,0,8] e[4,0,9] e[4,1,0] e[4,1,1] e[4,1,2] e[4,1,3] e[4,1,4]
 e[4,1,5] e[4,1,6] e[4,1,7] e[4,1,8] e[4,1,9] e[4,2,0] e[4,2,1] e[4,2,2]
 e[4,2,3] e[4,2,4] e[4,2,5] e[4,2,6] e[4,2,7] e[4,2,8] e[4,2,9] e[4,3,0]
 e[4,3,1] e[4,3,2] e[4,3,3] e[4,3,4] e[4,3,5] e[4,3,6] e[4,3,7] e[4,3,8]
 e[4,3,9] e[4,4,0] e[4,4,1] e[4,4,2] e[4,4,3] e[4,4,4] e[4,4,5] e[4,4,6]
 e[4,4,7] e[4,4,8] e[4,4,9] wat[0,0] wat[0,1] wat[0,2] wat[0,3] wat[0,4]
 wat[0,5] wat[0,6] wat[0,7] wat[0,8] wat[0,9] wat[1,0] wat[1,1] wat[1,2]
 wat[1,3] wat[1,4] wat[1,5] wat[1,6] wat[1,7] wat[1,8] wat[1,9] wat[2,0]
 wat[2,1] wat[2,2] wat[2,3] wat[2,4] wat[2,5] wat[2,6] wat[2,7] wat[2,8]
 wat[2,9]
End
