\ Model VRPTW_Heterogeneous_Fleet
\ LP format - for model browsing. Use MPS format to capture full model detail.
\ Signature: 0x222edba46fb050ba
Minimize
  0 x[0,0,0] + 0 x[0,0,1] + 0 x[0,0,2] + 4.47213595499958 x[0,1,0]
   + 1.49071198499986 x[0,1,1] + 2.23606797749979 x[0,1,2]
   + 6.08276253029822 x[0,2,0] + 2.027587510099407 x[0,2,1]
   + 3.04138126514911 x[0,2,2] + 5.830951894845301 x[0,3,0]
   + 1.9436506316151 x[0,3,1] + 2.91547594742265 x[0,3,2]
   + 2.23606797749979 x[0,4,0] + 0.7453559924999299 x[0,4,1]
   + 1.118033988749895 x[0,4,2] + 4.47213595499958 x[1,0,0]
   + 1.49071198499986 x[1,0,1] + 2.23606797749979 x[1,0,2] + 0 x[1,1,0]
   + 0 x[1,1,1] + 0 x[1,1,2] + 5 x[1,2,0] + 1.666666666666667 x[1,2,1]
   + 2.5 x[1,2,2] + 3.162277660168379 x[1,3,0] + 1.05409255338946 x[1,3,1]
   + 1.58113883008419 x[1,3,2] + 2.23606797749979 x[1,4,0]
   + 0.7453559924999299 x[1,4,1] + 1.118033988749895 x[1,4,2]
   + 6.08276253029822 x[2,0,0] + 2.027587510099407 x[2,0,1]
   + 3.04138126514911 x[2,0,2] + 5 x[2,1,0] + 1.666666666666667 x[2,1,1]
   + 2.5 x[2,1,2] + 0 x[2,2,0] + 0 x[2,2,1] + 0 x[2,2,2]
   + 2.23606797749979 x[2,3,0] + 0.7453559924999299 x[2,3,1]
   + 1.118033988749895 x[2,3,2] + 5.099019513592784 x[2,4,0]
   + 1.699673171197595 x[2,4,1] + 2.549509756796392 x[2,4,2]
   + 5.830951894845301 x[3,0,0] + 1.9436506316151 x[3,0,1]
   + 2.91547594742265 x[3,0,2] + 3.162277660168379 x[3,1,0]
   + 1.05409255338946 x[3,1,1] + 1.58113883008419 x[3,1,2]
   + 2.23606797749979 x[3,2,0] + 0.7453559924999299 x[3,2,1]
   + 1.118033988749895 x[3,2,2] + 0 x[3,3,0] + 0 x[3,3,1] + 0 x[3,3,2]
   + 4.123105625617661 x[3,4,0] + 1.374368541872554 x[3,4,1]
   + 2.06155281280883 x[3,4,2] + 2.23606797749979 x[4,0,0]
   + 0.7453559924999299 x[4,0,1] + 1.118033988749895 x[4,0,2]
   + 2.23606797749979 x[4,1,0] + 0.7453559924999299 x[4,1,1]
   + 1.118033988749895 x[4,1,2] + 5.099019513592784 x[4,2,0]
   + 1.699673171197595 x[4,2,1] + 2.549509756796392 x[4,2,2]
   + 4.123105625617661 x[4,3,0] + 1.374368541872554 x[4,3,1]
   + 2.06155281280883 x[4,3,2] + 0 x[4,4,0] + 0 x[4,4,1] + 0 x[4,4,2]
   + 0 u[0,0] + 0 u[0,1] + 0 u[0,2]
Subject To
 coverage[1]: x[0,1,0] + x[0,1,1] + x[0,1,2] + x[2,1,0] + x[2,1,1]
   + x[2,1,2] + x[3,1,0] + x[3,1,1] + x[3,1,2] + x[4,1,0] + x[4,1,1]
   + x[4,1,2] >= 1
 coverage[2]: x[0,2,0] + x[0,2,1] + x[0,2,2] + x[1,2,0] + x[1,2,1]
   + x[1,2,2] + x[3,2,0] + x[3,2,1] + x[3,2,2] + x[4,2,0] + x[4,2,1]
   + x[4,2,2] >= 1
 coverage[3]: x[0,3,0] + x[0,3,1] + x[0,3,2] + x[1,3,0] + x[1,3,1]
   + x[1,3,2] + x[2,3,0] + x[2,3,1] + x[2,3,2] + x[4,3,0] + x[4,3,1]
   + x[4,3,2] >= 1
 flow_conservation_0_0: x[0,1,0] + x[0,2,0] + x[0,3,0] + x[0,4,0]
   - x[1,0,0] - x[2,0,0] - x[3,0,0] - x[4,0,0] = 0
 flow_conservation_1_0: - x[0,1,0] + x[1,0,0] + x[1,2,0] + x[1,3,0]
   + x[1,4,0] - x[2,1,0] - x[3,1,0] - x[4,1,0] = 0
 flow_conservation_2_0: - x[0,2,0] - x[1,2,0] + x[2,0,0] + x[2,1,0]
   + x[2,3,0] + x[2,4,0] - x[3,2,0] - x[4,2,0] = 0
 flow_conservation_3_0: - x[0,3,0] - x[1,3,0] - x[2,3,0] + x[3,0,0]
   + x[3,1,0] + x[3,2,0] + x[3,4,0] - x[4,3,0] = 0
 flow_conservation_4_0: - x[0,4,0] - x[1,4,0] - x[2,4,0] - x[3,4,0]
   + x[4,0,0] + x[4,1,0] + x[4,2,0] + x[4,3,0] = 0
 flow_conservation_0_1: x[0,1,1] + x[0,2,1] + x[0,3,1] + x[0,4,1]
   - x[1,0,1] - x[2,0,1] - x[3,0,1] - x[4,0,1] = 0
 flow_conservation_1_1: - x[0,1,1] + x[1,0,1] + x[1,2,1] + x[1,3,1]
   + x[1,4,1] - x[2,1,1] - x[3,1,1] - x[4,1,1] = 0
 flow_conservation_2_1: - x[0,2,1] - x[1,2,1] + x[2,0,1] + x[2,1,1]
   + x[2,3,1] + x[2,4,1] - x[3,2,1] - x[4,2,1] = 0
 flow_conservation_3_1: - x[0,3,1] - x[1,3,1] - x[2,3,1] + x[3,0,1]
   + x[3,1,1] + x[3,2,1] + x[3,4,1] - x[4,3,1] = 0
 flow_conservation_4_1: - x[0,4,1] - x[1,4,1] - x[2,4,1] - x[3,4,1]
   + x[4,0,1] + x[4,1,1] + x[4,2,1] + x[4,3,1] = 0
 flow_conservation_0_2: x[0,1,2] + x[0,2,2] + x[0,3,2] + x[0,4,2]
   - x[1,0,2] - x[2,0,2] - x[3,0,2] - x[4,0,2] = 0
 flow_conservation_1_2: - x[0,1,2] + x[1,0,2] + x[1,2,2] + x[1,3,2]
   + x[1,4,2] - x[2,1,2] - x[3,1,2] - x[4,1,2] = 0
 flow_conservation_2_2: - x[0,2,2] - x[1,2,2] + x[2,0,2] + x[2,1,2]
   + x[2,3,2] + x[2,4,2] - x[3,2,2] - x[4,2,2] = 0
 flow_conservation_3_2: - x[0,3,2] - x[1,3,2] - x[2,3,2] + x[3,0,2]
   + x[3,1,2] + x[3,2,2] + x[3,4,2] - x[4,3,2] = 0
 flow_conservation_4_2: - x[0,4,2] - x[1,4,2] - x[2,4,2] - x[3,4,2]
   + x[4,0,2] + x[4,1,2] + x[4,2,2] + x[4,3,2] = 0
 depot_out[0]: x[0,1,0] + x[0,2,0] + x[0,3,0] + x[0,4,0] <= 1
 depot_out[1]: x[0,1,1] + x[0,2,1] + x[0,3,1] + x[0,4,1] <= 1
 depot_out[2]: x[0,1,2] + x[0,2,2] + x[0,3,2] + x[0,4,2] <= 1
 time_propogation: - 50000 x[0,1,0] - T[0,0] + T[1,0] >= -49995.527864045
 time_propogation: - 50000 x[0,1,1] - T[0,1] + T[1,1] >= -49998.509288015
 time_propogation: - 50000 x[0,1,2] - T[0,2] + T[1,2] >= -49997.7639320225
 time_propogation: - 50000 x[0,2,0] - T[0,0] + T[2,0] >= -49993.9172374697
 time_propogation: - 50000 x[0,2,1] - T[0,1] + T[2,1] >= -49997.9724124899
 time_propogation: - 50000 x[0,2,2] - T[0,2] + T[2,2]
   >= -49996.95861873485
 time_propogation: - 50000 x[0,3,0] - T[0,0] + T[3,0]
   >= -49994.16904810516
 time_propogation: - 50000 x[0,3,1] - T[0,1] + T[3,1]
   >= -49998.05634936839
 time_propogation: - 50000 x[0,3,2] - T[0,2] + T[3,2]
   >= -49997.08452405257
 time_propogation: - 50000 x[0,4,0] - T[0,0] + T[4,0] >= -49997.7639320225
 time_propogation: - 50000 x[0,4,1] - T[0,1] + T[4,1] >= -49999.2546440075
 time_propogation: - 50000 x[0,4,2] - T[0,2] + T[4,2]
   >= -49998.88196601125
 time_propogation: - 50000 x[1,2,0] - T[1,0] + T[2,0] >= -49990
 time_propogation: - 50000 x[1,2,1] - T[1,1] + T[2,1]
   >= -49993.33333333334
 time_propogation: - 50000 x[1,2,2] - T[1,2] + T[2,2] >= -49992.5
 time_propogation: - 50000 x[1,3,0] - T[1,0] + T[3,0]
   >= -49991.83772233983
 time_propogation: - 50000 x[1,3,1] - T[1,1] + T[3,1]
   >= -49993.94590744661
 time_propogation: - 50000 x[1,3,2] - T[1,2] + T[3,2]
   >= -49993.41886116991
 time_propogation: - 50000 x[1,4,0] - T[1,0] + T[4,0] >= -49992.7639320225
 time_propogation: - 50000 x[1,4,1] - T[1,1] + T[4,1] >= -49994.2546440075
 time_propogation: - 50000 x[1,4,2] - T[1,2] + T[4,2]
   >= -49993.88196601125
 time_propogation: - 50000 x[2,1,0] + T[1,0] - T[2,0] >= -49990
 time_propogation: - 50000 x[2,1,1] + T[1,1] - T[2,1]
   >= -49993.33333333334
 time_propogation: - 50000 x[2,1,2] + T[1,2] - T[2,2] >= -49992.5
 time_propogation: - 50000 x[2,3,0] - T[2,0] + T[3,0] >= -49992.7639320225
 time_propogation: - 50000 x[2,3,1] - T[2,1] + T[3,1] >= -49994.2546440075
 time_propogation: - 50000 x[2,3,2] - T[2,2] + T[3,2]
   >= -49993.88196601125
 time_propogation: - 50000 x[2,4,0] - T[2,0] + T[4,0]
   >= -49989.90098048641
 time_propogation: - 50000 x[2,4,1] - T[2,1] + T[4,1] >= -49993.3003268288
 time_propogation: - 50000 x[2,4,2] - T[2,2] + T[4,2] >= -49992.4504902432
 time_propogation: - 50000 x[3,1,0] + T[1,0] - T[3,0]
   >= -49991.83772233983
 time_propogation: - 50000 x[3,1,1] + T[1,1] - T[3,1]
   >= -49993.94590744661
 time_propogation: - 50000 x[3,1,2] + T[1,2] - T[3,2]
   >= -49993.41886116991
 time_propogation: - 50000 x[3,2,0] + T[2,0] - T[3,0] >= -49992.7639320225
 time_propogation: - 50000 x[3,2,1] + T[2,1] - T[3,1] >= -49994.2546440075
 time_propogation: - 50000 x[3,2,2] + T[2,2] - T[3,2]
   >= -49993.88196601125
 time_propogation: - 50000 x[3,4,0] - T[3,0] + T[4,0]
   >= -49990.87689437439
 time_propogation: - 50000 x[3,4,1] - T[3,1] + T[4,1]
   >= -49993.62563145813
 time_propogation: - 50000 x[3,4,2] - T[3,2] + T[4,2]
   >= -49992.93844718719
 time_propogation: - 50000 x[4,1,0] + T[1,0] - T[4,0] >= -49992.7639320225
 time_propogation: - 50000 x[4,1,1] + T[1,1] - T[4,1] >= -49994.2546440075
 time_propogation: - 50000 x[4,1,2] + T[1,2] - T[4,2]
   >= -49993.88196601125
 time_propogation: - 50000 x[4,2,0] + T[2,0] - T[4,0]
   >= -49989.90098048641
 time_propogation: - 50000 x[4,2,1] + T[2,1] - T[4,1] >= -49993.3003268288
 time_propogation: - 50000 x[4,2,2] + T[2,2] - T[4,2] >= -49992.4504902432
 time_propogation: - 50000 x[4,3,0] + T[3,0] - T[4,0]
   >= -49990.87689437439
 time_propogation: - 50000 x[4,3,1] + T[3,1] - T[4,1]
   >= -49993.62563145813
 time_propogation: - 50000 x[4,3,2] + T[3,2] - T[4,2]
   >= -49992.93844718719
 tw_lower[0,0]: T[0,0] >= 0
 tw_lower[0,1]: T[0,1] >= 0
 tw_lower[0,2]: T[0,2] >= 0
 tw_lower[1,0]: T[1,0] >= 0
 tw_lower[1,1]: T[1,1] >= 0
 tw_lower[1,2]: T[1,2] >= 0
 tw_lower[2,0]: T[2,0] >= 20
 tw_lower[2,1]: T[2,1] >= 20
 tw_lower[2,2]: T[2,2] >= 20
 tw_lower[3,0]: T[3,0] >= 10
 tw_lower[3,1]: T[3,1] >= 10
 tw_lower[3,2]: T[3,2] >= 10
 tw_lower[4,0]: T[4,0] >= 0
 tw_lower[4,1]: T[4,1] >= 0
 tw_lower[4,2]: T[4,2] >= 0
 drop_requires_visit_1_0: - 15000 x[0,1,0] - 15000 x[2,1,0]
   - 15000 x[3,1,0] - 15000 x[4,1,0] + d[1,0] <= 0
 drop_requires_visit_1_1: - 3000 x[0,1,1] - 3000 x[2,1,1] - 3000 x[3,1,1]
   - 3000 x[4,1,1] + d[1,1] <= 0
 drop_requires_visit_1_2: - 4000 x[0,1,2] - 4000 x[2,1,2] - 4000 x[3,1,2]
   - 4000 x[4,1,2] + d[1,2] <= 0
 drop_requires_visit_2_0: - 15000 x[0,2,0] - 15000 x[1,2,0]
   - 15000 x[3,2,0] - 15000 x[4,2,0] + d[2,0] <= 0
 drop_requires_visit_2_1: - 3000 x[0,2,1] - 3000 x[1,2,1] - 3000 x[3,2,1]
   - 3000 x[4,2,1] + d[2,1] <= 0
 drop_requires_visit_2_2: - 4000 x[0,2,2] - 4000 x[1,2,2] - 4000 x[3,2,2]
   - 4000 x[4,2,2] + d[2,2] <= 0
 drop_requires_visit_3_0: - 15000 x[0,3,0] - 15000 x[1,3,0]
   - 15000 x[2,3,0] - 15000 x[4,3,0] + d[3,0] <= 0
 drop_requires_visit_3_1: - 3000 x[0,3,1] - 3000 x[1,3,1] - 3000 x[2,3,1]
   - 3000 x[4,3,1] + d[3,1] <= 0
 drop_requires_visit_3_2: - 4000 x[0,3,2] - 4000 x[1,3,2] - 4000 x[2,3,2]
   - 4000 x[4,3,2] + d[3,2] <= 0
 tw_upper: 50000 x[1,0,0] + 50000 x[2,0,0] + 50000 x[3,0,0]
   + 50000 x[4,0,0] + T[0,0] <= 50200
 tw_upper: 50000 x[1,0,1] + 50000 x[2,0,1] + 50000 x[3,0,1]
   + 50000 x[4,0,1] + T[0,1] <= 50200
 tw_upper: 50000 x[1,0,2] + 50000 x[2,0,2] + 50000 x[3,0,2]
   + 50000 x[4,0,2] + T[0,2] <= 50200
 tw_upper: 50000 x[0,1,0] + 50000 x[2,1,0] + 50000 x[3,1,0]
   + 50000 x[4,1,0] + T[1,0] <= 50060
 tw_upper: 50000 x[0,1,1] + 50000 x[2,1,1] + 50000 x[3,1,1]
   + 50000 x[4,1,1] + T[1,1] <= 50060
 tw_upper: 50000 x[0,1,2] + 50000 x[2,1,2] + 50000 x[3,1,2]
   + 50000 x[4,1,2] + T[1,2] <= 50060
 tw_upper: 50000 x[0,2,0] + 50000 x[1,2,0] + 50000 x[3,2,0]
   + 50000 x[4,2,0] + T[2,0] <= 50080
 tw_upper: 50000 x[0,2,1] + 50000 x[1,2,1] + 50000 x[3,2,1]
   + 50000 x[4,2,1] + T[2,1] <= 50080
 tw_upper: 50000 x[0,2,2] + 50000 x[1,2,2] + 50000 x[3,2,2]
   + 50000 x[4,2,2] + T[2,2] <= 50080
 tw_upper: 50000 x[0,3,0] + 50000 x[1,3,0] + 50000 x[2,3,0]
   + 50000 x[4,3,0] + T[3,0] <= 50070
 tw_upper: 50000 x[0,3,1] + 50000 x[1,3,1] + 50000 x[2,3,1]
   + 50000 x[4,3,1] + T[3,1] <= 50070
 tw_upper: 50000 x[0,3,2] + 50000 x[1,3,2] + 50000 x[2,3,2]
   + 50000 x[4,3,2] + T[3,2] <= 50070
 tw_upper: 50000 x[0,4,0] + 50000 x[1,4,0] + 50000 x[2,4,0]
   + 50000 x[3,4,0] + T[4,0] <= 50200
 tw_upper: 50000 x[0,4,1] + 50000 x[1,4,1] + 50000 x[2,4,1]
   + 50000 x[3,4,1] + T[4,1] <= 50200
 tw_upper: 50000 x[0,4,2] + 50000 x[1,4,2] + 50000 x[2,4,2]
   + 50000 x[3,4,2] + T[4,2] <= 50200
 R108: d[1,0] <= 15000
 R109: d[1,1] <= 3000
 R110: d[1,2] <= 4000
 R111: d[2,0] <= 15000
 R112: d[2,1] <= 3000
 R113: d[2,2] <= 4000
 R114: d[3,0] <= 15000
 R115: d[3,1] <= 3000
 R116: d[3,2] <= 4000
 R117: d[1,0] <= 12000
 R118: d[1,1] <= 12000
 R119: d[1,2] <= 12000
 R120: d[2,0] <= 10500
 R121: d[2,1] <= 10500
 R122: d[2,2] <= 10500
 R123: d[3,0] <= 8000
 R124: d[3,1] <= 8000
 R125: d[3,2] <= 8000
 demand_met[1]: d[1,0] + d[1,1] + d[1,2] >= 12000
 demand_met[2]: d[2,0] + d[2,1] + d[2,2] >= 10500
 demand_met[3]: d[3,0] + d[3,1] + d[3,2] >= 8000
 lake_refill[0]: L[4,0] = 15000
 lake_refill[1]: L[4,1] = 3000
 lake_refill[2]: L[4,2] = 4000
 full_start[0]: L[0,0] = 15000
 full_start[1]: L[0,1] = 3000
 full_start[2]: L[0,2] = 4000
 LowerLoadBound[0,0]: L[0,0] >= 0
 LowerLoadBound[0,1]: L[0,1] >= 0
 LowerLoadBound[0,2]: L[0,2] >= 0
 LowerLoadBound[1,0]: L[1,0] >= 0
 LowerLoadBound[1,1]: L[1,1] >= 0
 LowerLoadBound[1,2]: L[1,2] >= 0
 LowerLoadBound[2,0]: L[2,0] >= 0
 LowerLoadBound[2,1]: L[2,1] >= 0
 LowerLoadBound[2,2]: L[2,2] >= 0
 LowerLoadBound[3,0]: L[3,0] >= 0
 LowerLoadBound[3,1]: L[3,1] >= 0
 LowerLoadBound[3,2]: L[3,2] >= 0
 LowerLoadBound[4,0]: L[4,0] >= 0
 LowerLoadBound[4,1]: L[4,1] >= 0
 LowerLoadBound[4,2]: L[4,2] >= 0
 UpperLoadBound[0,0]: L[0,0] <= 15000
 UpperLoadBound[0,1]: L[0,1] <= 3000
 UpperLoadBound[0,2]: L[0,2] <= 4000
 UpperLoadBound[1,0]: L[1,0] <= 15000
 UpperLoadBound[1,1]: L[1,1] <= 3000
 UpperLoadBound[1,2]: L[1,2] <= 4000
 UpperLoadBound[2,0]: L[2,0] <= 15000
 UpperLoadBound[2,1]: L[2,1] <= 3000
 UpperLoadBound[2,2]: L[2,2] <= 4000
 UpperLoadBound[3,0]: L[3,0] <= 15000
 UpperLoadBound[3,1]: L[3,1] <= 3000
 UpperLoadBound[3,2]: L[3,2] <= 4000
 UpperLoadBound[4,0]: L[4,0] <= 15000
 UpperLoadBound[4,1]: L[4,1] <= 3000
 UpperLoadBound[4,2]: L[4,2] <= 4000
 MTZ_elimination: 5 x[1,2,0] + u[1,0] - u[2,0] <= 4
 MTZ_elimination: 5 x[1,3,0] + u[1,0] - u[3,0] <= 4
 MTZ_elimination: 5 x[1,4,0] + u[1,0] - u[4,0] <= 4
 MTZ_elimination: 5 x[2,1,0] - u[1,0] + u[2,0] <= 4
 MTZ_elimination: 5 x[2,3,0] + u[2,0] - u[3,0] <= 4
 MTZ_elimination: 5 x[2,4,0] + u[2,0] - u[4,0] <= 4
 MTZ_elimination: 5 x[3,1,0] - u[1,0] + u[3,0] <= 4
 MTZ_elimination: 5 x[3,2,0] - u[2,0] + u[3,0] <= 4
 MTZ_elimination: 5 x[3,4,0] + u[3,0] - u[4,0] <= 4
 MTZ_elimination: 5 x[4,1,0] - u[1,0] + u[4,0] <= 4
 MTZ_elimination: 5 x[4,2,0] - u[2,0] + u[4,0] <= 4
 MTZ_elimination: 5 x[4,3,0] - u[3,0] + u[4,0] <= 4
 MTZ_elimination: 5 x[1,2,1] + u[1,1] - u[2,1] <= 4
 MTZ_elimination: 5 x[1,3,1] + u[1,1] - u[3,1] <= 4
 MTZ_elimination: 5 x[1,4,1] + u[1,1] - u[4,1] <= 4
 MTZ_elimination: 5 x[2,1,1] - u[1,1] + u[2,1] <= 4
 MTZ_elimination: 5 x[2,3,1] + u[2,1] - u[3,1] <= 4
 MTZ_elimination: 5 x[2,4,1] + u[2,1] - u[4,1] <= 4
 MTZ_elimination: 5 x[3,1,1] - u[1,1] + u[3,1] <= 4
 MTZ_elimination: 5 x[3,2,1] - u[2,1] + u[3,1] <= 4
 MTZ_elimination: 5 x[3,4,1] + u[3,1] - u[4,1] <= 4
 MTZ_elimination: 5 x[4,1,1] - u[1,1] + u[4,1] <= 4
 MTZ_elimination: 5 x[4,2,1] - u[2,1] + u[4,1] <= 4
 MTZ_elimination: 5 x[4,3,1] - u[3,1] + u[4,1] <= 4
 MTZ_elimination: 5 x[1,2,2] + u[1,2] - u[2,2] <= 4
 MTZ_elimination: 5 x[1,3,2] + u[1,2] - u[3,2] <= 4
 MTZ_elimination: 5 x[1,4,2] + u[1,2] - u[4,2] <= 4
 MTZ_elimination: 5 x[2,1,2] - u[1,2] + u[2,2] <= 4
 MTZ_elimination: 5 x[2,3,2] + u[2,2] - u[3,2] <= 4
 MTZ_elimination: 5 x[2,4,2] + u[2,2] - u[4,2] <= 4
 MTZ_elimination: 5 x[3,1,2] - u[1,2] + u[3,2] <= 4
 MTZ_elimination: 5 x[3,2,2] - u[2,2] + u[3,2] <= 4
 MTZ_elimination: 5 x[3,4,2] + u[3,2] - u[4,2] <= 4
 MTZ_elimination: 5 x[4,1,2] - u[1,2] + u[4,2] <= 4
 MTZ_elimination: 5 x[4,2,2] - u[2,2] + u[4,2] <= 4
 MTZ_elimination: 5 x[4,3,2] - u[3,2] + u[4,2] <= 4
 qc0: 20000 x[0,1,0] - L[0,0] + L[1,0] + [ x[0,1,0] * d[1,0] ] <= 20000
 qc1: - 20000 x[0,1,0] - L[0,0] + L[1,0] + [ x[0,1,0] * d[1,0] ] >= -20000
 qc2: 20000 x[0,1,1] - L[0,1] + L[1,1] + [ x[0,1,1] * d[1,1] ] <= 20000
 qc3: - 20000 x[0,1,1] - L[0,1] + L[1,1] + [ x[0,1,1] * d[1,1] ] >= -20000
 qc4: 20000 x[0,1,2] - L[0,2] + L[1,2] + [ x[0,1,2] * d[1,2] ] <= 20000
 qc5: - 20000 x[0,1,2] - L[0,2] + L[1,2] + [ x[0,1,2] * d[1,2] ] >= -20000
 qc6: 20000 x[0,2,0] - L[0,0] + L[2,0] + [ x[0,2,0] * d[2,0] ] <= 20000
 qc7: - 20000 x[0,2,0] - L[0,0] + L[2,0] + [ x[0,2,0] * d[2,0] ] >= -20000
 qc8: 20000 x[0,2,1] - L[0,1] + L[2,1] + [ x[0,2,1] * d[2,1] ] <= 20000
 qc9: - 20000 x[0,2,1] - L[0,1] + L[2,1] + [ x[0,2,1] * d[2,1] ] >= -20000
 qc10: 20000 x[0,2,2] - L[0,2] + L[2,2] + [ x[0,2,2] * d[2,2] ] <= 20000
 qc11: - 20000 x[0,2,2] - L[0,2] + L[2,2] + [ x[0,2,2] * d[2,2] ]
   >= -20000
 qc12: 20000 x[0,3,0] - L[0,0] + L[3,0] + [ x[0,3,0] * d[3,0] ] <= 20000
 qc13: - 20000 x[0,3,0] - L[0,0] + L[3,0] + [ x[0,3,0] * d[3,0] ]
   >= -20000
 qc14: 20000 x[0,3,1] - L[0,1] + L[3,1] + [ x[0,3,1] * d[3,1] ] <= 20000
 qc15: - 20000 x[0,3,1] - L[0,1] + L[3,1] + [ x[0,3,1] * d[3,1] ]
   >= -20000
 qc16: 20000 x[0,3,2] - L[0,2] + L[3,2] + [ x[0,3,2] * d[3,2] ] <= 20000
 qc17: - 20000 x[0,3,2] - L[0,2] + L[3,2] + [ x[0,3,2] * d[3,2] ]
   >= -20000
 qc18: 20000 x[1,2,0] - L[1,0] + L[2,0] + [ x[1,2,0] * d[2,0] ] <= 20000
 qc19: - 20000 x[1,2,0] - L[1,0] + L[2,0] + [ x[1,2,0] * d[2,0] ]
   >= -20000
 qc20: 20000 x[1,2,1] - L[1,1] + L[2,1] + [ x[1,2,1] * d[2,1] ] <= 20000
 qc21: - 20000 x[1,2,1] - L[1,1] + L[2,1] + [ x[1,2,1] * d[2,1] ]
   >= -20000
 qc22: 20000 x[1,2,2] - L[1,2] + L[2,2] + [ x[1,2,2] * d[2,2] ] <= 20000
 qc23: - 20000 x[1,2,2] - L[1,2] + L[2,2] + [ x[1,2,2] * d[2,2] ]
   >= -20000
 qc24: 20000 x[1,3,0] - L[1,0] + L[3,0] + [ x[1,3,0] * d[3,0] ] <= 20000
 qc25: - 20000 x[1,3,0] - L[1,0] + L[3,0] + [ x[1,3,0] * d[3,0] ]
   >= -20000
 qc26: 20000 x[1,3,1] - L[1,1] + L[3,1] + [ x[1,3,1] * d[3,1] ] <= 20000
 qc27: - 20000 x[1,3,1] - L[1,1] + L[3,1] + [ x[1,3,1] * d[3,1] ]
   >= -20000
 qc28: 20000 x[1,3,2] - L[1,2] + L[3,2] + [ x[1,3,2] * d[3,2] ] <= 20000
 qc29: - 20000 x[1,3,2] - L[1,2] + L[3,2] + [ x[1,3,2] * d[3,2] ]
   >= -20000
 qc30: 20000 x[2,1,0] + L[1,0] - L[2,0] + [ x[2,1,0] * d[1,0] ] <= 20000
 qc31: - 20000 x[2,1,0] + L[1,0] - L[2,0] + [ x[2,1,0] * d[1,0] ]
   >= -20000
 qc32: 20000 x[2,1,1] + L[1,1] - L[2,1] + [ x[2,1,1] * d[1,1] ] <= 20000
 qc33: - 20000 x[2,1,1] + L[1,1] - L[2,1] + [ x[2,1,1] * d[1,1] ]
   >= -20000
 qc34: 20000 x[2,1,2] + L[1,2] - L[2,2] + [ x[2,1,2] * d[1,2] ] <= 20000
 qc35: - 20000 x[2,1,2] + L[1,2] - L[2,2] + [ x[2,1,2] * d[1,2] ]
   >= -20000
 qc36: 20000 x[2,3,0] - L[2,0] + L[3,0] + [ x[2,3,0] * d[3,0] ] <= 20000
 qc37: - 20000 x[2,3,0] - L[2,0] + L[3,0] + [ x[2,3,0] * d[3,0] ]
   >= -20000
 qc38: 20000 x[2,3,1] - L[2,1] + L[3,1] + [ x[2,3,1] * d[3,1] ] <= 20000
 qc39: - 20000 x[2,3,1] - L[2,1] + L[3,1] + [ x[2,3,1] * d[3,1] ]
   >= -20000
 qc40: 20000 x[2,3,2] - L[2,2] + L[3,2] + [ x[2,3,2] * d[3,2] ] <= 20000
 qc41: - 20000 x[2,3,2] - L[2,2] + L[3,2] + [ x[2,3,2] * d[3,2] ]
   >= -20000
 qc42: 20000 x[3,1,0] + L[1,0] - L[3,0] + [ x[3,1,0] * d[1,0] ] <= 20000
 qc43: - 20000 x[3,1,0] + L[1,0] - L[3,0] + [ x[3,1,0] * d[1,0] ]
   >= -20000
 qc44: 20000 x[3,1,1] + L[1,1] - L[3,1] + [ x[3,1,1] * d[1,1] ] <= 20000
 qc45: - 20000 x[3,1,1] + L[1,1] - L[3,1] + [ x[3,1,1] * d[1,1] ]
   >= -20000
 qc46: 20000 x[3,1,2] + L[1,2] - L[3,2] + [ x[3,1,2] * d[1,2] ] <= 20000
 qc47: - 20000 x[3,1,2] + L[1,2] - L[3,2] + [ x[3,1,2] * d[1,2] ]
   >= -20000
 qc48: 20000 x[3,2,0] + L[2,0] - L[3,0] + [ x[3,2,0] * d[2,0] ] <= 20000
 qc49: - 20000 x[3,2,0] + L[2,0] - L[3,0] + [ x[3,2,0] * d[2,0] ]
   >= -20000
 qc50: 20000 x[3,2,1] + L[2,1] - L[3,1] + [ x[3,2,1] * d[2,1] ] <= 20000
 qc51: - 20000 x[3,2,1] + L[2,1] - L[3,1] + [ x[3,2,1] * d[2,1] ]
   >= -20000
 qc52: 20000 x[3,2,2] + L[2,2] - L[3,2] + [ x[3,2,2] * d[2,2] ] <= 20000
 qc53: - 20000 x[3,2,2] + L[2,2] - L[3,2] + [ x[3,2,2] * d[2,2] ]
   >= -20000
 qc54: 20000 x[4,1,0] + L[1,0] - L[4,0] + [ x[4,1,0] * d[1,0] ] <= 20000
 qc55: - 20000 x[4,1,0] + L[1,0] - L[4,0] + [ x[4,1,0] * d[1,0] ]
   >= -20000
 qc56: 20000 x[4,1,1] + L[1,1] - L[4,1] + [ x[4,1,1] * d[1,1] ] <= 20000
 qc57: - 20000 x[4,1,1] + L[1,1] - L[4,1] + [ x[4,1,1] * d[1,1] ]
   >= -20000
 qc58: 20000 x[4,1,2] + L[1,2] - L[4,2] + [ x[4,1,2] * d[1,2] ] <= 20000
 qc59: - 20000 x[4,1,2] + L[1,2] - L[4,2] + [ x[4,1,2] * d[1,2] ]
   >= -20000
 qc60: 20000 x[4,2,0] + L[2,0] - L[4,0] + [ x[4,2,0] * d[2,0] ] <= 20000
 qc61: - 20000 x[4,2,0] + L[2,0] - L[4,0] + [ x[4,2,0] * d[2,0] ]
   >= -20000
 qc62: 20000 x[4,2,1] + L[2,1] - L[4,1] + [ x[4,2,1] * d[2,1] ] <= 20000
 qc63: - 20000 x[4,2,1] + L[2,1] - L[4,1] + [ x[4,2,1] * d[2,1] ]
   >= -20000
 qc64: 20000 x[4,2,2] + L[2,2] - L[4,2] + [ x[4,2,2] * d[2,2] ] <= 20000
 qc65: - 20000 x[4,2,2] + L[2,2] - L[4,2] + [ x[4,2,2] * d[2,2] ]
   >= -20000
 qc66: 20000 x[4,3,0] + L[3,0] - L[4,0] + [ x[4,3,0] * d[3,0] ] <= 20000
 qc67: - 20000 x[4,3,0] + L[3,0] - L[4,0] + [ x[4,3,0] * d[3,0] ]
   >= -20000
 qc68: 20000 x[4,3,1] + L[3,1] - L[4,1] + [ x[4,3,1] * d[3,1] ] <= 20000
 qc69: - 20000 x[4,3,1] + L[3,1] - L[4,1] + [ x[4,3,1] * d[3,1] ]
   >= -20000
 qc70: 20000 x[4,3,2] + L[3,2] - L[4,2] + [ x[4,3,2] * d[3,2] ] <= 20000
 qc71: - 20000 x[4,3,2] + L[3,2] - L[4,2] + [ x[4,3,2] * d[3,2] ]
   >= -20000
Bounds
Binaries
 x[0,0,0] x[0,0,1] x[0,0,2] x[0,1,0] x[0,1,1] x[0,1,2] x[0,2,0] x[0,2,1]
 x[0,2,2] x[0,3,0] x[0,3,1] x[0,3,2] x[0,4,0] x[0,4,1] x[0,4,2] x[1,0,0]
 x[1,0,1] x[1,0,2] x[1,1,0] x[1,1,1] x[1,1,2] x[1,2,0] x[1,2,1] x[1,2,2]
 x[1,3,0] x[1,3,1] x[1,3,2] x[1,4,0] x[1,4,1] x[1,4,2] x[2,0,0] x[2,0,1]
 x[2,0,2] x[2,1,0] x[2,1,1] x[2,1,2] x[2,2,0] x[2,2,1] x[2,2,2] x[2,3,0]
 x[2,3,1] x[2,3,2] x[2,4,0] x[2,4,1] x[2,4,2] x[3,0,0] x[3,0,1] x[3,0,2]
 x[3,1,0] x[3,1,1] x[3,1,2] x[3,2,0] x[3,2,1] x[3,2,2] x[3,3,0] x[3,3,1]
 x[3,3,2] x[3,4,0] x[3,4,1] x[3,4,2] x[4,0,0] x[4,0,1] x[4,0,2] x[4,1,0]
 x[4,1,1] x[4,1,2] x[4,2,0] x[4,2,1] x[4,2,2] x[4,3,0] x[4,3,1] x[4,3,2]
 x[4,4,0] x[4,4,1] x[4,4,2]
End
